&control
 calculation='scf',
 restart_mode='from_scratch',
 prefix='water_Odown_Hup',
 outdir='.',
 pseudo_dir='.',
/
&system
 ibrav=0,
 nat=3,
 ntyp=2,
 ecutwfc=51.44903232,
 occupations='fixed',
 nbnd=25,
/
&electrons
/
CELL_PARAMETERS angstrom
30.0 0.0 0.0 
0.0 30.0 0.0 
0.0 0.0 30.0 
ATOMIC_SPECIES
O 15.999 O.pbe-n-kjpaw_psl.1.0.0.UPF
H 1.00784 H.pbe-kjpaw_psl.1.0.0.UPF
ATOMIC_POSITIONS angstrom
O        0.00000000       0.00000000       9.00000000
H        0.00000000       0.75696000       9.58587000
H        0.00000000      29.24304000       9.58587000
K_POINTS automatic
3 3 1 0 0 0
