&control
 calculation='scf',
 restart_mode='from_scratch',
 prefix='hBN_water_Oup_Hdown',
 outdir='.',
 pseudo_dir='.',
/
&system
 ibrav=0,
 nat=44,
 ntyp=4,
 ecutwfc=51.44903232,
 occupations='fixed',
 nbnd=132,
/
&electrons
/
CELL_PARAMETERS angstrom
10.01818 0.0 0.0 
0.0 8.676 0.0 
0.0 0.0 30.0 
ATOMIC_SPECIES
B 10.811 B.pbe-n-kjpaw_psl.1.0.0.UPF
N 14.0067 N.pbe-n-kjpaw_psl.1.0.0.UPF
O 15.999 O.pbe-n-kjpaw_psl.1.0.0.UPF
H 1.00784 H.pbe-kjpaw_psl.1.0.0.UPF
ATOMIC_POSITIONS angstrom
B        8.76590750       0.72300578       6.00000000
B        8.76590750       5.06100578       6.00000000
B        3.75681750       0.72300578       6.00000000
B        3.75681750       5.06100578       6.00000000
B        1.25227250       0.72300578       6.00000000
B        1.25227250       5.06100578       6.00000000
B        6.26136250       0.72300578       6.00000000
B        6.26136250       5.06100578       6.00000000
B        0.00000000       7.22999711       6.00000000
B        0.00000000       2.89200578       6.00000000
B        5.00909000       7.22999711       6.00000000
B        5.00909000       2.89200578       6.00000000
B        2.50454500       7.22999711       6.00000000
B        2.50454500       2.89200578       6.00000000
B        7.51363500       7.22999711       6.00000000
B        7.51363500       2.89200578       6.00000000
N        8.76590750       7.95300289       6.00000000
N        8.76590750       3.61499422       6.00000000
N        3.75681750       7.95300289       6.00000000
N        3.75681750       3.61499422       6.00000000
N        1.25227250       7.95300289       6.00000000
N        1.25227250       3.61499422       6.00000000
N        6.26136250       7.95300289       6.00000000
N        6.26136250       3.61499422       6.00000000
N        0.00000000       1.44599422       6.00000000
N        0.00000000       5.78399422       6.00000000
N        5.00909000       1.44599422       6.00000000
N        5.00909000       5.78399422       6.00000000
N        2.50454500       1.44599422       6.00000000
N        2.50454500       5.78399422       6.00000000
N        7.51363500       1.44599422       6.00000000
N        7.51363500       5.78399422       6.00000000
O        0.00000000       0.00000000       9.39999000
O        0.00000000       4.33800000       9.39999000
O        5.00909000       0.00000000       9.39999000
O        5.00909000       4.33800000       9.39999000
H        0.00000000       0.75694630       8.81412000
H        0.00000000       5.09495497       8.81412000
H        5.00909000       0.75694630       8.81412000
H        5.00909000       5.09495497       8.81412000
H        0.00000000       7.91904503       8.81412000
H        0.00000000       3.58104503       8.81412000
H        5.00909000       7.91904503       8.81412000
H        5.00909000       3.58104503       8.81412000
K_POINTS automatic
3 3 1 0 0 0
