&control
 calculation='scf',
 restart_mode='from_scratch',
 prefix='hBN_water_Oup_Hdown',
 outdir='.',
 pseudo_dir='.',
/
&system
 ibrav=0,
 nat=99,
 ntyp=4,
 ecutwfc=51.44903232,
 occupations='fixed',
 nbnd=297,
/
&electrons
/
CELL_PARAMETERS angstrom
15.02727 0.0 0.0 
0.0 13.014 0.0 
0.0 0.0 30.0 
ATOMIC_SPECIES
B 10.811 B.pbe-n-kjpaw_psl.1.0.0.UPF
N 14.0067 N.pbe-n-kjpaw_psl.1.0.0.UPF
O 15.999 O.pbe-n-kjpaw_psl.1.0.0.UPF
H 1.00784 H.pbe-kjpaw_psl.1.0.0.UPF
ATOMIC_POSITIONS angstrom
B       13.77500251       0.72300578       6.00000000
B       13.77500251       5.06100145       6.00000000
B       13.77500251       9.39899711       6.00000000
B        3.75681750       0.72300578       6.00000000
B        3.75681750       5.06100145       6.00000000
B        3.75681750       9.39899711       6.00000000
B        8.76590249       0.72300578       6.00000000
B        8.76590249       5.06100145       6.00000000
B        8.76590249       9.39899711       6.00000000
B        1.25226749       0.72300578       6.00000000
B        1.25226749       5.06100145       6.00000000
B        1.25226749       9.39899711       6.00000000
B        6.26136751       0.72300578       6.00000000
B        6.26136751       5.06100145       6.00000000
B        6.26136751       9.39899711       6.00000000
B       11.27045250       0.72300578       6.00000000
B       11.27045250       5.06100145       6.00000000
B       11.27045250       9.39899711       6.00000000
B        0.00000000      11.56800145       6.00000000
B        0.00000000       2.89199711       6.00000000
B        0.00000000       7.23000578       6.00000000
B        5.00908499      11.56800145       6.00000000
B        5.00908499       2.89199711       6.00000000
B        5.00908499       7.23000578       6.00000000
B       10.01818501      11.56800145       6.00000000
B       10.01818501       2.89199711       6.00000000
B       10.01818501       7.23000578       6.00000000
B        2.50455001      11.56800145       6.00000000
B        2.50455001       2.89199711       6.00000000
B        2.50455001       7.23000578       6.00000000
B        7.51363500      11.56800145       6.00000000
B        7.51363500       2.89199711       6.00000000
B        7.51363500       7.23000578       6.00000000
B       12.52271999      11.56800145       6.00000000
B       12.52271999       2.89199711       6.00000000
B       12.52271999       7.23000578       6.00000000
N       13.77500251      12.29099422       6.00000000
N       13.77500251       3.61500289       6.00000000
N       13.77500251       7.95299855       6.00000000
N        3.75681750      12.29099422       6.00000000
N        3.75681750       3.61500289       6.00000000
N        3.75681750       7.95299855       6.00000000
N        8.76590249      12.29099422       6.00000000
N        8.76590249       3.61500289       6.00000000
N        8.76590249       7.95299855       6.00000000
N        1.25226749      12.29099422       6.00000000
N        1.25226749       3.61500289       6.00000000
N        1.25226749       7.95299855       6.00000000
N        6.26136751      12.29099422       6.00000000
N        6.26136751       3.61500289       6.00000000
N        6.26136751       7.95299855       6.00000000
N       11.27045250      12.29099422       6.00000000
N       11.27045250       3.61500289       6.00000000
N       11.27045250       7.95299855       6.00000000
N        0.00000000       1.44599855       6.00000000
N        0.00000000       5.78399422       6.00000000
N        0.00000000      10.12200289       6.00000000
N        5.00908499       1.44599855       6.00000000
N        5.00908499       5.78399422       6.00000000
N        5.00908499      10.12200289       6.00000000
N       10.01818501       1.44599855       6.00000000
N       10.01818501       5.78399422       6.00000000
N       10.01818501      10.12200289       6.00000000
N        2.50455001       1.44599855       6.00000000
N        2.50455001       5.78399422       6.00000000
N        2.50455001      10.12200289       6.00000000
N        7.51363500       1.44599855       6.00000000
N        7.51363500       5.78399422       6.00000000
N        7.51363500      10.12200289       6.00000000
N       12.52271999       1.44599855       6.00000000
N       12.52271999       5.78399422       6.00000000
N       12.52271999      10.12200289       6.00000000
O        0.00000000       0.00000000       9.39999000
O        0.00000000       4.33799566       9.39999000
O        0.00000000       8.67600434       9.39999000
O        5.00908499       0.00000000       9.39999000
O        5.00908499       4.33799566       9.39999000
O        5.00908499       8.67600434       9.39999000
O       10.01818501       0.00000000       9.39999000
O       10.01818501       4.33799566       9.39999000
O       10.01818501       8.67600434       9.39999000
H        0.00000000       0.75694630       8.81412000
H        0.00000000       5.09495497       8.81412000
H        0.00000000       9.43295063       8.81412000
H        5.00908499       0.75694630       8.81412000
H        5.00908499       5.09495497       8.81412000
H        5.00908499       9.43295063       8.81412000
H       10.01818501       0.75694630       8.81412000
H       10.01818501       5.09495497       8.81412000
H       10.01818501       9.43295063       8.81412000
H        0.00000000      12.25705370       8.81412000
H        0.00000000       3.58104937       8.81412000
H        0.00000000       7.91904503       8.81412000
H        5.00908499      12.25705370       8.81412000
H        5.00908499       3.58104937       8.81412000
H        5.00908499       7.91904503       8.81412000
H       10.01818501      12.25705370       8.81412000
H       10.01818501       3.58104937       8.81412000
H       10.01818501       7.91904503       8.81412000
K_POINTS automatic
3 3 1 0 0 0
