water_Oright_Hleft_primitive_cell
1.00000
30.00000 0.00000 0.00000
0.00000 30.00000 0.00000
0.00000 0.00000 30.00000
O H
1 2
Cartesian
0.000000000 0.000000000 9.400000000
0.000000000 0.957200000 9.400000000
0.000000000 -0.239987200 8.473372800
