H2 O1
1.0
30.000000 0.000000 0.000000
0.000000 30.000000 0.000000
0.000000 0.000000 30.000000
O H
1 2
direct
0.000000 0.000000 0.300000 O
0.000000 0.025232 0.319529 H
0.000000 0.974768 0.319529 H
