H2 O1
1.0
30.000000 0.000000 0.000000
0.000000 30.000000 0.000000
0.000000 0.000000 30.000000
O H
1 2
direct
0.000000 0.000000 0.306667 O
0.025232 0.019529 0.306667 H
0.974768 0.019529 0.306667 H
