water_Oleft_Hright_primitive_cell
1.00000
30.00000 0.00000 0.00000
0.00000 30.00000 0.00000
0.00000 0.00000 30.00000
O H
1 2
Cartesian
0.340000000 1.575998554 9.400000000
-0.440000000 1.305998554 9.920000000
0.070000000 1.475998554 8.470000000
