water_Oflat_Hflat_primitive_cell
1.00000
30.00000 0.00000 0.00000
0.00000 30.00000 0.00000
0.00000 0.00000 30.00000
O H
1 2
Cartesian
0.000000000 0.000000000 9.200000000
0.756950634 0.585882300 9.200000000
-0.756950634 0.585882300 9.200000000
