H2 O1
1.0
30.000000 0.000000 0.000000
0.000000 30.000000 0.000000
0.000000 0.000000 30.000000
O H
1 2
direct
0.011333 0.052533 0.313333 O
0.985333 0.043533 0.330667 H
0.002333 0.049200 0.282333 H
