H2 O1
1.0
30.000000 0.000000 0.000000
0.000000 30.000000 0.000000
0.000000 0.000000 30.000000
O H
1 2
direct
0.001000 0.964800 0.306667 O
0.028333 0.949133 0.315000 H
0.977333 0.949467 0.322667 H
