water_Oup_Hdown_rotated_primitive_cell
1.00000
30.00000 0.00000 0.00000
0.00000 30.00000 0.00000
0.00000 0.00000 30.00000
O H
1 2
Cartesian
0.030000000 -1.055998554 9.200000000
0.850000000 -1.525998554 9.450000000
-0.680000000 -1.515998554 9.680000000
