&control
 calculation='scf',
 restart_mode='from_scratch',
 prefix='water_Oleft_Hright',
 outdir='.',
 pseudo_dir='.',
/
&system
 ibrav=0,
 nat=3,
 ntyp=2,
 ecutwfc=51.44903232,
 occupations='fixed',
 nbnd=25,
/
&electrons
/
CELL_PARAMETERS angstrom
30.0 0.0 0.0 
0.0 30.0 0.0 
0.0 0.0 30.0 
ATOMIC_SPECIES
O 15.999 O.pbe-n-kjpaw_psl.1.0.0.UPF
H 1.00784 H.pbe-kjpaw_psl.1.0.0.UPF
ATOMIC_POSITIONS angstrom
O        0.33999000       1.57599000       9.39999000
H       29.55999000       1.30599000       9.92001000
H        0.06999000       1.47600000       8.46999000
K_POINTS automatic
3 3 1 0 0 0
