B4 N4
1.0
5.009090 0.000000 0.000000
0.000000 4.338000 0.000000
0.000000 0.000000 30.000000
B N
4 4
direct
0.750000 0.166667 0.200000 B
0.250000 0.166667 0.200000 B
0.000000 0.666667 0.200000 B
0.500000 0.666667 0.200000 B
0.750000 0.833333 0.200000 N
0.250000 0.833333 0.200000 N
0.000000 0.333333 0.200000 N
0.500000 0.333333 0.200000 N
