B16 N16
1.0
10.018180 0.000000 0.000000
0.000000 8.676000 0.000000
0.000000 0.000000 30.000000
B N
16 16
direct
0.875000 0.083334 0.200000 B
0.875000 0.583334 0.200000 B
0.375000 0.083334 0.200000 B
0.375000 0.583334 0.200000 B
0.125000 0.083334 0.200000 B
0.125000 0.583334 0.200000 B
0.625000 0.083334 0.200000 B
0.625000 0.583334 0.200000 B
0.000000 0.833333 0.200000 B
0.000000 0.333334 0.200000 B
0.500000 0.833333 0.200000 B
0.500000 0.333334 0.200000 B
0.250000 0.833333 0.200000 B
0.250000 0.333334 0.200000 B
0.750000 0.833333 0.200000 B
0.750000 0.333334 0.200000 B
0.875000 0.916667 0.200000 N
0.875000 0.416666 0.200000 N
0.375000 0.916667 0.200000 N
0.375000 0.416666 0.200000 N
0.125000 0.916667 0.200000 N
0.125000 0.416666 0.200000 N
0.625000 0.916667 0.200000 N
0.625000 0.416666 0.200000 N
0.000000 0.166666 0.200000 N
0.000000 0.666666 0.200000 N
0.500000 0.166666 0.200000 N
0.500000 0.666666 0.200000 N
0.250000 0.166666 0.200000 N
0.250000 0.666666 0.200000 N
0.750000 0.166666 0.200000 N
0.750000 0.666666 0.200000 N
