B36 N36
1.0
15.027270 0.000000 0.000000
0.000000 13.014000 0.000000
0.000000 0.000000 30.000000
B N
36 36
direct
0.916667 0.055556 0.200000 B
0.916667 0.388889 0.200000 B
0.916667 0.722222 0.200000 B
0.250000 0.055556 0.200000 B
0.250000 0.388889 0.200000 B
0.250000 0.722222 0.200000 B
0.583333 0.055556 0.200000 B
0.583333 0.388889 0.200000 B
0.583333 0.722222 0.200000 B
0.083333 0.055556 0.200000 B
0.083333 0.388889 0.200000 B
0.083333 0.722222 0.200000 B
0.416667 0.055556 0.200000 B
0.416667 0.388889 0.200000 B
0.416667 0.722222 0.200000 B
0.750000 0.055556 0.200000 B
0.750000 0.388889 0.200000 B
0.750000 0.722222 0.200000 B
0.000000 0.888889 0.200000 B
0.000000 0.222222 0.200000 B
0.000000 0.555556 0.200000 B
0.333333 0.888889 0.200000 B
0.333333 0.222222 0.200000 B
0.333333 0.555556 0.200000 B
0.666667 0.888889 0.200000 B
0.666667 0.222222 0.200000 B
0.666667 0.555556 0.200000 B
0.166667 0.888889 0.200000 B
0.166667 0.222222 0.200000 B
0.166667 0.555556 0.200000 B
0.500000 0.888889 0.200000 B
0.500000 0.222222 0.200000 B
0.500000 0.555556 0.200000 B
0.833333 0.888889 0.200000 B
0.833333 0.222222 0.200000 B
0.833333 0.555556 0.200000 B
0.916667 0.944444 0.200000 N
0.916667 0.277778 0.200000 N
0.916667 0.611111 0.200000 N
0.250000 0.944444 0.200000 N
0.250000 0.277778 0.200000 N
0.250000 0.611111 0.200000 N
0.583333 0.944444 0.200000 N
0.583333 0.277778 0.200000 N
0.583333 0.611111 0.200000 N
0.083333 0.944444 0.200000 N
0.083333 0.277778 0.200000 N
0.083333 0.611111 0.200000 N
0.416667 0.944444 0.200000 N
0.416667 0.277778 0.200000 N
0.416667 0.611111 0.200000 N
0.750000 0.944444 0.200000 N
0.750000 0.277778 0.200000 N
0.750000 0.611111 0.200000 N
0.000000 0.111111 0.200000 N
0.000000 0.444444 0.200000 N
0.000000 0.777778 0.200000 N
0.333333 0.111111 0.200000 N
0.333333 0.444444 0.200000 N
0.333333 0.777778 0.200000 N
0.666667 0.111111 0.200000 N
0.666667 0.444444 0.200000 N
0.666667 0.777778 0.200000 N
0.166667 0.111111 0.200000 N
0.166667 0.444444 0.200000 N
0.166667 0.777778 0.200000 N
0.500000 0.111111 0.200000 N
0.500000 0.444444 0.200000 N
0.500000 0.777778 0.200000 N
0.833333 0.111111 0.200000 N
0.833333 0.444444 0.200000 N
0.833333 0.777778 0.200000 N
