B100 N100
1.0
25.045450 0.000000 0.000000
0.000000 21.690000 0.000000
0.000000 0.000000 30.000000
B N
100 100
direct
0.950000 0.033333 0.200000 B
0.950000 0.233333 0.200000 B
0.950000 0.433333 0.200000 B
0.950000 0.633333 0.200000 B
0.950000 0.833333 0.200000 B
0.150000 0.033333 0.200000 B
0.150000 0.233333 0.200000 B
0.150000 0.433333 0.200000 B
0.150000 0.633333 0.200000 B
0.150000 0.833333 0.200000 B
0.350000 0.033333 0.200000 B
0.350000 0.233333 0.200000 B
0.350000 0.433333 0.200000 B
0.350000 0.633333 0.200000 B
0.350000 0.833333 0.200000 B
0.550000 0.033333 0.200000 B
0.550000 0.233333 0.200000 B
0.550000 0.433333 0.200000 B
0.550000 0.633333 0.200000 B
0.550000 0.833333 0.200000 B
0.750000 0.033333 0.200000 B
0.750000 0.233333 0.200000 B
0.750000 0.433333 0.200000 B
0.750000 0.633333 0.200000 B
0.750000 0.833333 0.200000 B
0.050000 0.033333 0.200000 B
0.050000 0.233333 0.200000 B
0.050000 0.433333 0.200000 B
0.050000 0.633333 0.200000 B
0.050000 0.833333 0.200000 B
0.250000 0.033333 0.200000 B
0.250000 0.233333 0.200000 B
0.250000 0.433333 0.200000 B
0.250000 0.633333 0.200000 B
0.250000 0.833333 0.200000 B
0.450000 0.033333 0.200000 B
0.450000 0.233333 0.200000 B
0.450000 0.433333 0.200000 B
0.450000 0.633333 0.200000 B
0.450000 0.833333 0.200000 B
0.650000 0.033333 0.200000 B
0.650000 0.233333 0.200000 B
0.650000 0.433333 0.200000 B
0.650000 0.633333 0.200000 B
0.650000 0.833333 0.200000 B
0.850000 0.033333 0.200000 B
0.850000 0.233333 0.200000 B
0.850000 0.433333 0.200000 B
0.850000 0.633333 0.200000 B
0.850000 0.833333 0.200000 B
0.000000 0.933333 0.200000 B
0.000000 0.133333 0.200000 B
0.000000 0.333333 0.200000 B
0.000000 0.533333 0.200000 B
0.000000 0.733333 0.200000 B
0.200000 0.933333 0.200000 B
0.200000 0.133333 0.200000 B
0.200000 0.333333 0.200000 B
0.200000 0.533333 0.200000 B
0.200000 0.733333 0.200000 B
0.400000 0.933333 0.200000 B
0.400000 0.133333 0.200000 B
0.400000 0.333333 0.200000 B
0.400000 0.533333 0.200000 B
0.400000 0.733333 0.200000 B
0.600000 0.933333 0.200000 B
0.600000 0.133333 0.200000 B
0.600000 0.333333 0.200000 B
0.600000 0.533333 0.200000 B
0.600000 0.733333 0.200000 B
0.800000 0.933333 0.200000 B
0.800000 0.133333 0.200000 B
0.800000 0.333333 0.200000 B
0.800000 0.533333 0.200000 B
0.800000 0.733333 0.200000 B
0.100000 0.933333 0.200000 B
0.100000 0.133333 0.200000 B
0.100000 0.333333 0.200000 B
0.100000 0.533333 0.200000 B
0.100000 0.733333 0.200000 B
0.300000 0.933333 0.200000 B
0.300000 0.133333 0.200000 B
0.300000 0.333333 0.200000 B
0.300000 0.533333 0.200000 B
0.300000 0.733333 0.200000 B
0.500000 0.933333 0.200000 B
0.500000 0.133333 0.200000 B
0.500000 0.333333 0.200000 B
0.500000 0.533333 0.200000 B
0.500000 0.733333 0.200000 B
0.700000 0.933333 0.200000 B
0.700000 0.133333 0.200000 B
0.700000 0.333333 0.200000 B
0.700000 0.533333 0.200000 B
0.700000 0.733333 0.200000 B
0.900000 0.933333 0.200000 B
0.900000 0.133333 0.200000 B
0.900000 0.333333 0.200000 B
0.900000 0.533333 0.200000 B
0.900000 0.733333 0.200000 B
0.950000 0.966667 0.200000 N
0.950000 0.166667 0.200000 N
0.950000 0.366667 0.200000 N
0.950000 0.566667 0.200000 N
0.950000 0.766667 0.200000 N
0.150000 0.966667 0.200000 N
0.150000 0.166667 0.200000 N
0.150000 0.366667 0.200000 N
0.150000 0.566667 0.200000 N
0.150000 0.766667 0.200000 N
0.350000 0.966667 0.200000 N
0.350000 0.166667 0.200000 N
0.350000 0.366667 0.200000 N
0.350000 0.566667 0.200000 N
0.350000 0.766667 0.200000 N
0.550000 0.966667 0.200000 N
0.550000 0.166667 0.200000 N
0.550000 0.366667 0.200000 N
0.550000 0.566667 0.200000 N
0.550000 0.766667 0.200000 N
0.750000 0.966667 0.200000 N
0.750000 0.166667 0.200000 N
0.750000 0.366667 0.200000 N
0.750000 0.566667 0.200000 N
0.750000 0.766667 0.200000 N
0.050000 0.966667 0.200000 N
0.050000 0.166667 0.200000 N
0.050000 0.366667 0.200000 N
0.050000 0.566667 0.200000 N
0.050000 0.766667 0.200000 N
0.250000 0.966667 0.200000 N
0.250000 0.166667 0.200000 N
0.250000 0.366667 0.200000 N
0.250000 0.566667 0.200000 N
0.250000 0.766667 0.200000 N
0.450000 0.966667 0.200000 N
0.450000 0.166667 0.200000 N
0.450000 0.366667 0.200000 N
0.450000 0.566667 0.200000 N
0.450000 0.766667 0.200000 N
0.650000 0.966667 0.200000 N
0.650000 0.166667 0.200000 N
0.650000 0.366667 0.200000 N
0.650000 0.566667 0.200000 N
0.650000 0.766667 0.200000 N
0.850000 0.966667 0.200000 N
0.850000 0.166667 0.200000 N
0.850000 0.366667 0.200000 N
0.850000 0.566667 0.200000 N
0.850000 0.766667 0.200000 N
0.000000 0.066667 0.200000 N
0.000000 0.266667 0.200000 N
0.000000 0.466667 0.200000 N
0.000000 0.666667 0.200000 N
0.000000 0.866667 0.200000 N
0.200000 0.066667 0.200000 N
0.200000 0.266667 0.200000 N
0.200000 0.466667 0.200000 N
0.200000 0.666667 0.200000 N
0.200000 0.866667 0.200000 N
0.400000 0.066667 0.200000 N
0.400000 0.266667 0.200000 N
0.400000 0.466667 0.200000 N
0.400000 0.666667 0.200000 N
0.400000 0.866667 0.200000 N
0.600000 0.066667 0.200000 N
0.600000 0.266667 0.200000 N
0.600000 0.466667 0.200000 N
0.600000 0.666667 0.200000 N
0.600000 0.866667 0.200000 N
0.800000 0.066667 0.200000 N
0.800000 0.266667 0.200000 N
0.800000 0.466667 0.200000 N
0.800000 0.666667 0.200000 N
0.800000 0.866667 0.200000 N
0.100000 0.066667 0.200000 N
0.100000 0.266667 0.200000 N
0.100000 0.466667 0.200000 N
0.100000 0.666667 0.200000 N
0.100000 0.866667 0.200000 N
0.300000 0.066667 0.200000 N
0.300000 0.266667 0.200000 N
0.300000 0.466667 0.200000 N
0.300000 0.666667 0.200000 N
0.300000 0.866667 0.200000 N
0.500000 0.066667 0.200000 N
0.500000 0.266667 0.200000 N
0.500000 0.466667 0.200000 N
0.500000 0.666667 0.200000 N
0.500000 0.866667 0.200000 N
0.700000 0.066667 0.200000 N
0.700000 0.266667 0.200000 N
0.700000 0.466667 0.200000 N
0.700000 0.666667 0.200000 N
0.700000 0.866667 0.200000 N
0.900000 0.066667 0.200000 N
0.900000 0.266667 0.200000 N
0.900000 0.466667 0.200000 N
0.900000 0.666667 0.200000 N
0.900000 0.866667 0.200000 N
