B324 N324
1.0
  45.0818099999999973    0.0000000000000000    0.0000000000000000
   0.0000000000000000   39.0420000000000016    0.0000000000000000
   0.0000000000000000    0.0000000000000000   30.0000000000000000
B N
324 324
direct
   0.9722222222222222    0.0185185555555556    0.2000000000000000 B
   0.9722222222222222    0.1296296666666667    0.2000000000000000 B
   0.9722222222222222    0.2407407777777777    0.2000000000000000 B
   0.9722222222222222    0.3518518888888889    0.2000000000000000 B
   0.9722222222222222    0.4629630000000000    0.2000000000000000 B
   0.9722222222222222    0.5740741111111112    0.2000000000000000 B
   0.9722222222222222    0.6851852222222222    0.2000000000000000 B
   0.9722222222222222    0.7962963333333333    0.2000000000000000 B
   0.9722222222222222    0.9074074444444443    0.2000000000000000 B
   0.0833333333333333    0.0185185555555556    0.2000000000000000 B
   0.0833333333333333    0.1296296666666667    0.2000000000000000 B
   0.0833333333333333    0.2407407777777777    0.2000000000000000 B
   0.0833333333333333    0.3518518888888889    0.2000000000000000 B
   0.0833333333333333    0.4629630000000000    0.2000000000000000 B
   0.0833333333333333    0.5740741111111112    0.2000000000000000 B
   0.0833333333333333    0.6851852222222222    0.2000000000000000 B
   0.0833333333333333    0.7962963333333333    0.2000000000000000 B
   0.0833333333333333    0.9074074444444443    0.2000000000000000 B
   0.1944444444444444    0.0185185555555556    0.2000000000000000 B
   0.1944444444444444    0.1296296666666667    0.2000000000000000 B
   0.1944444444444444    0.2407407777777777    0.2000000000000000 B
   0.1944444444444444    0.3518518888888889    0.2000000000000000 B
   0.1944444444444444    0.4629630000000000    0.2000000000000000 B
   0.1944444444444444    0.5740741111111112    0.2000000000000000 B
   0.1944444444444444    0.6851852222222222    0.2000000000000000 B
   0.1944444444444444    0.7962963333333333    0.2000000000000000 B
   0.1944444444444444    0.9074074444444443    0.2000000000000000 B
   0.3055555555555555    0.0185185555555556    0.2000000000000000 B
   0.3055555555555555    0.1296296666666667    0.2000000000000000 B
   0.3055555555555555    0.2407407777777777    0.2000000000000000 B
   0.3055555555555555    0.3518518888888889    0.2000000000000000 B
   0.3055555555555555    0.4629630000000000    0.2000000000000000 B
   0.3055555555555555    0.5740741111111112    0.2000000000000000 B
   0.3055555555555555    0.6851852222222222    0.2000000000000000 B
   0.3055555555555555    0.7962963333333333    0.2000000000000000 B
   0.3055555555555555    0.9074074444444443    0.2000000000000000 B
   0.4166666666666667    0.0185185555555556    0.2000000000000000 B
   0.4166666666666667    0.1296296666666667    0.2000000000000000 B
   0.4166666666666667    0.2407407777777777    0.2000000000000000 B
   0.4166666666666667    0.3518518888888889    0.2000000000000000 B
   0.4166666666666667    0.4629630000000000    0.2000000000000000 B
   0.4166666666666667    0.5740741111111112    0.2000000000000000 B
   0.4166666666666667    0.6851852222222222    0.2000000000000000 B
   0.4166666666666667    0.7962963333333333    0.2000000000000000 B
   0.4166666666666667    0.9074074444444443    0.2000000000000000 B
   0.5277777777777778    0.0185185555555556    0.2000000000000000 B
   0.5277777777777778    0.1296296666666667    0.2000000000000000 B
   0.5277777777777778    0.2407407777777777    0.2000000000000000 B
   0.5277777777777778    0.3518518888888889    0.2000000000000000 B
   0.5277777777777778    0.4629630000000000    0.2000000000000000 B
   0.5277777777777778    0.5740741111111112    0.2000000000000000 B
   0.5277777777777778    0.6851852222222222    0.2000000000000000 B
   0.5277777777777778    0.7962963333333333    0.2000000000000000 B
   0.5277777777777778    0.9074074444444443    0.2000000000000000 B
   0.6388888888888888    0.0185185555555556    0.2000000000000000 B
   0.6388888888888888    0.1296296666666667    0.2000000000000000 B
   0.6388888888888888    0.2407407777777777    0.2000000000000000 B
   0.6388888888888888    0.3518518888888889    0.2000000000000000 B
   0.6388888888888888    0.4629630000000000    0.2000000000000000 B
   0.6388888888888888    0.5740741111111112    0.2000000000000000 B
   0.6388888888888888    0.6851852222222222    0.2000000000000000 B
   0.6388888888888888    0.7962963333333333    0.2000000000000000 B
   0.6388888888888888    0.9074074444444443    0.2000000000000000 B
   0.7500000000000001    0.0185185555555556    0.2000000000000000 B
   0.7500000000000001    0.1296296666666667    0.2000000000000000 B
   0.7500000000000001    0.2407407777777777    0.2000000000000000 B
   0.7500000000000001    0.3518518888888889    0.2000000000000000 B
   0.7500000000000001    0.4629630000000000    0.2000000000000000 B
   0.7500000000000001    0.5740741111111112    0.2000000000000000 B
   0.7500000000000001    0.6851852222222222    0.2000000000000000 B
   0.7500000000000001    0.7962963333333333    0.2000000000000000 B
   0.7500000000000001    0.9074074444444443    0.2000000000000000 B
   0.8611111111111113    0.0185185555555556    0.2000000000000000 B
   0.8611111111111113    0.1296296666666667    0.2000000000000000 B
   0.8611111111111113    0.2407407777777777    0.2000000000000000 B
   0.8611111111111113    0.3518518888888889    0.2000000000000000 B
   0.8611111111111113    0.4629630000000000    0.2000000000000000 B
   0.8611111111111113    0.5740741111111112    0.2000000000000000 B
   0.8611111111111113    0.6851852222222222    0.2000000000000000 B
   0.8611111111111113    0.7962963333333333    0.2000000000000000 B
   0.8611111111111113    0.9074074444444443    0.2000000000000000 B
   0.0277777777777778    0.0185185555555556    0.2000000000000000 B
   0.0277777777777778    0.1296296666666667    0.2000000000000000 B
   0.0277777777777778    0.2407407777777777    0.2000000000000000 B
   0.0277777777777778    0.3518518888888889    0.2000000000000000 B
   0.0277777777777778    0.4629630000000000    0.2000000000000000 B
   0.0277777777777778    0.5740741111111112    0.2000000000000000 B
   0.0277777777777778    0.6851852222222222    0.2000000000000000 B
   0.0277777777777778    0.7962963333333333    0.2000000000000000 B
   0.0277777777777778    0.9074074444444443    0.2000000000000000 B
   0.1388888888888889    0.0185185555555556    0.2000000000000000 B
   0.1388888888888889    0.1296296666666667    0.2000000000000000 B
   0.1388888888888889    0.2407407777777777    0.2000000000000000 B
   0.1388888888888889    0.3518518888888889    0.2000000000000000 B
   0.1388888888888889    0.4629630000000000    0.2000000000000000 B
   0.1388888888888889    0.5740741111111112    0.2000000000000000 B
   0.1388888888888889    0.6851852222222222    0.2000000000000000 B
   0.1388888888888889    0.7962963333333333    0.2000000000000000 B
   0.1388888888888889    0.9074074444444443    0.2000000000000000 B
   0.2500000000000000    0.0185185555555556    0.2000000000000000 B
   0.2500000000000000    0.1296296666666667    0.2000000000000000 B
   0.2500000000000000    0.2407407777777777    0.2000000000000000 B
   0.2500000000000000    0.3518518888888889    0.2000000000000000 B
   0.2500000000000000    0.4629630000000000    0.2000000000000000 B
   0.2500000000000000    0.5740741111111112    0.2000000000000000 B
   0.2500000000000000    0.6851852222222222    0.2000000000000000 B
   0.2500000000000000    0.7962963333333333    0.2000000000000000 B
   0.2500000000000000    0.9074074444444443    0.2000000000000000 B
   0.3611111111111111    0.0185185555555556    0.2000000000000000 B
   0.3611111111111111    0.1296296666666667    0.2000000000000000 B
   0.3611111111111111    0.2407407777777777    0.2000000000000000 B
   0.3611111111111111    0.3518518888888889    0.2000000000000000 B
   0.3611111111111111    0.4629630000000000    0.2000000000000000 B
   0.3611111111111111    0.5740741111111112    0.2000000000000000 B
   0.3611111111111111    0.6851852222222222    0.2000000000000000 B
   0.3611111111111111    0.7962963333333333    0.2000000000000000 B
   0.3611111111111111    0.9074074444444443    0.2000000000000000 B
   0.4722222222222223    0.0185185555555556    0.2000000000000000 B
   0.4722222222222223    0.1296296666666667    0.2000000000000000 B
   0.4722222222222223    0.2407407777777777    0.2000000000000000 B
   0.4722222222222223    0.3518518888888889    0.2000000000000000 B
   0.4722222222222223    0.4629630000000000    0.2000000000000000 B
   0.4722222222222223    0.5740741111111112    0.2000000000000000 B
   0.4722222222222223    0.6851852222222222    0.2000000000000000 B
   0.4722222222222223    0.7962963333333333    0.2000000000000000 B
   0.4722222222222223    0.9074074444444443    0.2000000000000000 B
   0.5833333333333334    0.0185185555555556    0.2000000000000000 B
   0.5833333333333334    0.1296296666666667    0.2000000000000000 B
   0.5833333333333334    0.2407407777777777    0.2000000000000000 B
   0.5833333333333334    0.3518518888888889    0.2000000000000000 B
   0.5833333333333334    0.4629630000000000    0.2000000000000000 B
   0.5833333333333334    0.5740741111111112    0.2000000000000000 B
   0.5833333333333334    0.6851852222222222    0.2000000000000000 B
   0.5833333333333334    0.7962963333333333    0.2000000000000000 B
   0.5833333333333334    0.9074074444444443    0.2000000000000000 B
   0.6944444444444444    0.0185185555555556    0.2000000000000000 B
   0.6944444444444444    0.1296296666666667    0.2000000000000000 B
   0.6944444444444444    0.2407407777777777    0.2000000000000000 B
   0.6944444444444444    0.3518518888888889    0.2000000000000000 B
   0.6944444444444444    0.4629630000000000    0.2000000000000000 B
   0.6944444444444444    0.5740741111111112    0.2000000000000000 B
   0.6944444444444444    0.6851852222222222    0.2000000000000000 B
   0.6944444444444444    0.7962963333333333    0.2000000000000000 B
   0.6944444444444444    0.9074074444444443    0.2000000000000000 B
   0.8055555555555555    0.0185185555555556    0.2000000000000000 B
   0.8055555555555555    0.1296296666666667    0.2000000000000000 B
   0.8055555555555555    0.2407407777777777    0.2000000000000000 B
   0.8055555555555555    0.3518518888888889    0.2000000000000000 B
   0.8055555555555555    0.4629630000000000    0.2000000000000000 B
   0.8055555555555555    0.5740741111111112    0.2000000000000000 B
   0.8055555555555555    0.6851852222222222    0.2000000000000000 B
   0.8055555555555555    0.7962963333333333    0.2000000000000000 B
   0.8055555555555555    0.9074074444444443    0.2000000000000000 B
   0.9166666666666666    0.0185185555555556    0.2000000000000000 B
   0.9166666666666666    0.1296296666666667    0.2000000000000000 B
   0.9166666666666666    0.2407407777777777    0.2000000000000000 B
   0.9166666666666666    0.3518518888888889    0.2000000000000000 B
   0.9166666666666666    0.4629630000000000    0.2000000000000000 B
   0.9166666666666666    0.5740741111111112    0.2000000000000000 B
   0.9166666666666666    0.6851852222222222    0.2000000000000000 B
   0.9166666666666666    0.7962963333333333    0.2000000000000000 B
   0.9166666666666666    0.9074074444444443    0.2000000000000000 B
   0.0000000000000000    0.9629630000000000    0.2000000000000000 B
   0.0000000000000000    0.0740741111111111    0.2000000000000000 B
   0.0000000000000000    0.1851852222222222    0.2000000000000000 B
   0.0000000000000000    0.2962963333333333    0.2000000000000000 B
   0.0000000000000000    0.4074074444444444    0.2000000000000000 B
   0.0000000000000000    0.5185185555555556    0.2000000000000000 B
   0.0000000000000000    0.6296296666666666    0.2000000000000000 B
   0.0000000000000000    0.7407407777777777    0.2000000000000000 B
   0.0000000000000000    0.8518518888888889    0.2000000000000000 B
   0.1111111111111111    0.9629630000000000    0.2000000000000000 B
   0.1111111111111111    0.0740741111111111    0.2000000000000000 B
   0.1111111111111111    0.1851852222222222    0.2000000000000000 B
   0.1111111111111111    0.2962963333333333    0.2000000000000000 B
   0.1111111111111111    0.4074074444444444    0.2000000000000000 B
   0.1111111111111111    0.5185185555555556    0.2000000000000000 B
   0.1111111111111111    0.6296296666666666    0.2000000000000000 B
   0.1111111111111111    0.7407407777777777    0.2000000000000000 B
   0.1111111111111111    0.8518518888888889    0.2000000000000000 B
   0.2222222222222222    0.9629630000000000    0.2000000000000000 B
   0.2222222222222222    0.0740741111111111    0.2000000000000000 B
   0.2222222222222222    0.1851852222222222    0.2000000000000000 B
   0.2222222222222222    0.2962963333333333    0.2000000000000000 B
   0.2222222222222222    0.4074074444444444    0.2000000000000000 B
   0.2222222222222222    0.5185185555555556    0.2000000000000000 B
   0.2222222222222222    0.6296296666666666    0.2000000000000000 B
   0.2222222222222222    0.7407407777777777    0.2000000000000000 B
   0.2222222222222222    0.8518518888888889    0.2000000000000000 B
   0.3333333333333333    0.9629630000000000    0.2000000000000000 B
   0.3333333333333333    0.0740741111111111    0.2000000000000000 B
   0.3333333333333333    0.1851852222222222    0.2000000000000000 B
   0.3333333333333333    0.2962963333333333    0.2000000000000000 B
   0.3333333333333333    0.4074074444444444    0.2000000000000000 B
   0.3333333333333333    0.5185185555555556    0.2000000000000000 B
   0.3333333333333333    0.6296296666666666    0.2000000000000000 B
   0.3333333333333333    0.7407407777777777    0.2000000000000000 B
   0.3333333333333333    0.8518518888888889    0.2000000000000000 B
   0.4444444444444445    0.9629630000000000    0.2000000000000000 B
   0.4444444444444445    0.0740741111111111    0.2000000000000000 B
   0.4444444444444445    0.1851852222222222    0.2000000000000000 B
   0.4444444444444445    0.2962963333333333    0.2000000000000000 B
   0.4444444444444445    0.4074074444444444    0.2000000000000000 B
   0.4444444444444445    0.5185185555555556    0.2000000000000000 B
   0.4444444444444445    0.6296296666666666    0.2000000000000000 B
   0.4444444444444445    0.7407407777777777    0.2000000000000000 B
   0.4444444444444445    0.8518518888888889    0.2000000000000000 B
   0.5555555555555556    0.9629630000000000    0.2000000000000000 B
   0.5555555555555556    0.0740741111111111    0.2000000000000000 B
   0.5555555555555556    0.1851852222222222    0.2000000000000000 B
   0.5555555555555556    0.2962963333333333    0.2000000000000000 B
   0.5555555555555556    0.4074074444444444    0.2000000000000000 B
   0.5555555555555556    0.5185185555555556    0.2000000000000000 B
   0.5555555555555556    0.6296296666666666    0.2000000000000000 B
   0.5555555555555556    0.7407407777777777    0.2000000000000000 B
   0.5555555555555556    0.8518518888888889    0.2000000000000000 B
   0.6666666666666666    0.9629630000000000    0.2000000000000000 B
   0.6666666666666666    0.0740741111111111    0.2000000000000000 B
   0.6666666666666666    0.1851852222222222    0.2000000000000000 B
   0.6666666666666666    0.2962963333333333    0.2000000000000000 B
   0.6666666666666666    0.4074074444444444    0.2000000000000000 B
   0.6666666666666666    0.5185185555555556    0.2000000000000000 B
   0.6666666666666666    0.6296296666666666    0.2000000000000000 B
   0.6666666666666666    0.7407407777777777    0.2000000000000000 B
   0.6666666666666666    0.8518518888888889    0.2000000000000000 B
   0.7777777777777778    0.9629630000000000    0.2000000000000000 B
   0.7777777777777778    0.0740741111111111    0.2000000000000000 B
   0.7777777777777778    0.1851852222222222    0.2000000000000000 B
   0.7777777777777778    0.2962963333333333    0.2000000000000000 B
   0.7777777777777778    0.4074074444444444    0.2000000000000000 B
   0.7777777777777778    0.5185185555555556    0.2000000000000000 B
   0.7777777777777778    0.6296296666666666    0.2000000000000000 B
   0.7777777777777778    0.7407407777777777    0.2000000000000000 B
   0.7777777777777778    0.8518518888888889    0.2000000000000000 B
   0.8888888888888890    0.9629630000000000    0.2000000000000000 B
   0.8888888888888890    0.0740741111111111    0.2000000000000000 B
   0.8888888888888890    0.1851852222222222    0.2000000000000000 B
   0.8888888888888890    0.2962963333333333    0.2000000000000000 B
   0.8888888888888890    0.4074074444444444    0.2000000000000000 B
   0.8888888888888890    0.5185185555555556    0.2000000000000000 B
   0.8888888888888890    0.6296296666666666    0.2000000000000000 B
   0.8888888888888890    0.7407407777777777    0.2000000000000000 B
   0.8888888888888890    0.8518518888888889    0.2000000000000000 B
   0.0555555555555556    0.9629630000000000    0.2000000000000000 B
   0.0555555555555556    0.0740741111111111    0.2000000000000000 B
   0.0555555555555556    0.1851852222222222    0.2000000000000000 B
   0.0555555555555556    0.2962963333333333    0.2000000000000000 B
   0.0555555555555556    0.4074074444444444    0.2000000000000000 B
   0.0555555555555556    0.5185185555555556    0.2000000000000000 B
   0.0555555555555556    0.6296296666666666    0.2000000000000000 B
   0.0555555555555556    0.7407407777777777    0.2000000000000000 B
   0.0555555555555556    0.8518518888888889    0.2000000000000000 B
   0.1666666666666667    0.9629630000000000    0.2000000000000000 B
   0.1666666666666667    0.0740741111111111    0.2000000000000000 B
   0.1666666666666667    0.1851852222222222    0.2000000000000000 B
   0.1666666666666667    0.2962963333333333    0.2000000000000000 B
   0.1666666666666667    0.4074074444444444    0.2000000000000000 B
   0.1666666666666667    0.5185185555555556    0.2000000000000000 B
   0.1666666666666667    0.6296296666666666    0.2000000000000000 B
   0.1666666666666667    0.7407407777777777    0.2000000000000000 B
   0.1666666666666667    0.8518518888888889    0.2000000000000000 B
   0.2777777777777778    0.9629630000000000    0.2000000000000000 B
   0.2777777777777778    0.0740741111111111    0.2000000000000000 B
   0.2777777777777778    0.1851852222222222    0.2000000000000000 B
   0.2777777777777778    0.2962963333333333    0.2000000000000000 B
   0.2777777777777778    0.4074074444444444    0.2000000000000000 B
   0.2777777777777778    0.5185185555555556    0.2000000000000000 B
   0.2777777777777778    0.6296296666666666    0.2000000000000000 B
   0.2777777777777778    0.7407407777777777    0.2000000000000000 B
   0.2777777777777778    0.8518518888888889    0.2000000000000000 B
   0.3888888888888889    0.9629630000000000    0.2000000000000000 B
   0.3888888888888889    0.0740741111111111    0.2000000000000000 B
   0.3888888888888889    0.1851852222222222    0.2000000000000000 B
   0.3888888888888889    0.2962963333333333    0.2000000000000000 B
   0.3888888888888889    0.4074074444444444    0.2000000000000000 B
   0.3888888888888889    0.5185185555555556    0.2000000000000000 B
   0.3888888888888889    0.6296296666666666    0.2000000000000000 B
   0.3888888888888889    0.7407407777777777    0.2000000000000000 B
   0.3888888888888889    0.8518518888888889    0.2000000000000000 B
   0.5000000000000000    0.9629630000000000    0.2000000000000000 B
   0.5000000000000000    0.0740741111111111    0.2000000000000000 B
   0.5000000000000000    0.1851852222222222    0.2000000000000000 B
   0.5000000000000000    0.2962963333333333    0.2000000000000000 B
   0.5000000000000000    0.4074074444444444    0.2000000000000000 B
   0.5000000000000000    0.5185185555555556    0.2000000000000000 B
   0.5000000000000000    0.6296296666666666    0.2000000000000000 B
   0.5000000000000000    0.7407407777777777    0.2000000000000000 B
   0.5000000000000000    0.8518518888888889    0.2000000000000000 B
   0.6111111111111112    0.9629630000000000    0.2000000000000000 B
   0.6111111111111112    0.0740741111111111    0.2000000000000000 B
   0.6111111111111112    0.1851852222222222    0.2000000000000000 B
   0.6111111111111112    0.2962963333333333    0.2000000000000000 B
   0.6111111111111112    0.4074074444444444    0.2000000000000000 B
   0.6111111111111112    0.5185185555555556    0.2000000000000000 B
   0.6111111111111112    0.6296296666666666    0.2000000000000000 B
   0.6111111111111112    0.7407407777777777    0.2000000000000000 B
   0.6111111111111112    0.8518518888888889    0.2000000000000000 B
   0.7222222222222222    0.9629630000000000    0.2000000000000000 B
   0.7222222222222222    0.0740741111111111    0.2000000000000000 B
   0.7222222222222222    0.1851852222222222    0.2000000000000000 B
   0.7222222222222222    0.2962963333333333    0.2000000000000000 B
   0.7222222222222222    0.4074074444444444    0.2000000000000000 B
   0.7222222222222222    0.5185185555555556    0.2000000000000000 B
   0.7222222222222222    0.6296296666666666    0.2000000000000000 B
   0.7222222222222222    0.7407407777777777    0.2000000000000000 B
   0.7222222222222222    0.8518518888888889    0.2000000000000000 B
   0.8333333333333334    0.9629630000000000    0.2000000000000000 B
   0.8333333333333334    0.0740741111111111    0.2000000000000000 B
   0.8333333333333334    0.1851852222222222    0.2000000000000000 B
   0.8333333333333334    0.2962963333333333    0.2000000000000000 B
   0.8333333333333334    0.4074074444444444    0.2000000000000000 B
   0.8333333333333334    0.5185185555555556    0.2000000000000000 B
   0.8333333333333334    0.6296296666666666    0.2000000000000000 B
   0.8333333333333334    0.7407407777777777    0.2000000000000000 B
   0.8333333333333334    0.8518518888888889    0.2000000000000000 B
   0.9444444444444445    0.9629630000000000    0.2000000000000000 B
   0.9444444444444445    0.0740741111111111    0.2000000000000000 B
   0.9444444444444445    0.1851852222222222    0.2000000000000000 B
   0.9444444444444445    0.2962963333333333    0.2000000000000000 B
   0.9444444444444445    0.4074074444444444    0.2000000000000000 B
   0.9444444444444445    0.5185185555555556    0.2000000000000000 B
   0.9444444444444445    0.6296296666666666    0.2000000000000000 B
   0.9444444444444445    0.7407407777777777    0.2000000000000000 B
   0.9444444444444445    0.8518518888888889    0.2000000000000000 B
   0.9722222222222222    0.9814814444444444    0.2000000000000000 N
   0.9722222222222222    0.0925925555555556    0.2000000000000000 N
   0.9722222222222222    0.2037036666666667    0.2000000000000000 N
   0.9722222222222222    0.3148147777777778    0.2000000000000000 N
   0.9722222222222222    0.4259258888888888    0.2000000000000000 N
   0.9722222222222222    0.5370370000000000    0.2000000000000000 N
   0.9722222222222222    0.6481481111111110    0.2000000000000000 N
   0.9722222222222222    0.7592592222222221    0.2000000000000000 N
   0.9722222222222222    0.8703703333333334    0.2000000000000000 N
   0.0833333333333333    0.9814814444444444    0.2000000000000000 N
   0.0833333333333333    0.0925925555555556    0.2000000000000000 N
   0.0833333333333333    0.2037036666666667    0.2000000000000000 N
   0.0833333333333333    0.3148147777777778    0.2000000000000000 N
   0.0833333333333333    0.4259258888888888    0.2000000000000000 N
   0.0833333333333333    0.5370370000000000    0.2000000000000000 N
   0.0833333333333333    0.6481481111111110    0.2000000000000000 N
   0.0833333333333333    0.7592592222222221    0.2000000000000000 N
   0.0833333333333333    0.8703703333333334    0.2000000000000000 N
   0.1944444444444444    0.9814814444444444    0.2000000000000000 N
   0.1944444444444444    0.0925925555555556    0.2000000000000000 N
   0.1944444444444444    0.2037036666666667    0.2000000000000000 N
   0.1944444444444444    0.3148147777777778    0.2000000000000000 N
   0.1944444444444444    0.4259258888888888    0.2000000000000000 N
   0.1944444444444444    0.5370370000000000    0.2000000000000000 N
   0.1944444444444444    0.6481481111111110    0.2000000000000000 N
   0.1944444444444444    0.7592592222222221    0.2000000000000000 N
   0.1944444444444444    0.8703703333333334    0.2000000000000000 N
   0.3055555555555555    0.9814814444444444    0.2000000000000000 N
   0.3055555555555555    0.0925925555555556    0.2000000000000000 N
   0.3055555555555555    0.2037036666666667    0.2000000000000000 N
   0.3055555555555555    0.3148147777777778    0.2000000000000000 N
   0.3055555555555555    0.4259258888888888    0.2000000000000000 N
   0.3055555555555555    0.5370370000000000    0.2000000000000000 N
   0.3055555555555555    0.6481481111111110    0.2000000000000000 N
   0.3055555555555555    0.7592592222222221    0.2000000000000000 N
   0.3055555555555555    0.8703703333333334    0.2000000000000000 N
   0.4166666666666667    0.9814814444444444    0.2000000000000000 N
   0.4166666666666667    0.0925925555555556    0.2000000000000000 N
   0.4166666666666667    0.2037036666666667    0.2000000000000000 N
   0.4166666666666667    0.3148147777777778    0.2000000000000000 N
   0.4166666666666667    0.4259258888888888    0.2000000000000000 N
   0.4166666666666667    0.5370370000000000    0.2000000000000000 N
   0.4166666666666667    0.6481481111111110    0.2000000000000000 N
   0.4166666666666667    0.7592592222222221    0.2000000000000000 N
   0.4166666666666667    0.8703703333333334    0.2000000000000000 N
   0.5277777777777778    0.9814814444444444    0.2000000000000000 N
   0.5277777777777778    0.0925925555555556    0.2000000000000000 N
   0.5277777777777778    0.2037036666666667    0.2000000000000000 N
   0.5277777777777778    0.3148147777777778    0.2000000000000000 N
   0.5277777777777778    0.4259258888888888    0.2000000000000000 N
   0.5277777777777778    0.5370370000000000    0.2000000000000000 N
   0.5277777777777778    0.6481481111111110    0.2000000000000000 N
   0.5277777777777778    0.7592592222222221    0.2000000000000000 N
   0.5277777777777778    0.8703703333333334    0.2000000000000000 N
   0.6388888888888888    0.9814814444444444    0.2000000000000000 N
   0.6388888888888888    0.0925925555555556    0.2000000000000000 N
   0.6388888888888888    0.2037036666666667    0.2000000000000000 N
   0.6388888888888888    0.3148147777777778    0.2000000000000000 N
   0.6388888888888888    0.4259258888888888    0.2000000000000000 N
   0.6388888888888888    0.5370370000000000    0.2000000000000000 N
   0.6388888888888888    0.6481481111111110    0.2000000000000000 N
   0.6388888888888888    0.7592592222222221    0.2000000000000000 N
   0.6388888888888888    0.8703703333333334    0.2000000000000000 N
   0.7500000000000001    0.9814814444444444    0.2000000000000000 N
   0.7500000000000001    0.0925925555555556    0.2000000000000000 N
   0.7500000000000001    0.2037036666666667    0.2000000000000000 N
   0.7500000000000001    0.3148147777777778    0.2000000000000000 N
   0.7500000000000001    0.4259258888888888    0.2000000000000000 N
   0.7500000000000001    0.5370370000000000    0.2000000000000000 N
   0.7500000000000001    0.6481481111111110    0.2000000000000000 N
   0.7500000000000001    0.7592592222222221    0.2000000000000000 N
   0.7500000000000001    0.8703703333333334    0.2000000000000000 N
   0.8611111111111113    0.9814814444444444    0.2000000000000000 N
   0.8611111111111113    0.0925925555555556    0.2000000000000000 N
   0.8611111111111113    0.2037036666666667    0.2000000000000000 N
   0.8611111111111113    0.3148147777777778    0.2000000000000000 N
   0.8611111111111113    0.4259258888888888    0.2000000000000000 N
   0.8611111111111113    0.5370370000000000    0.2000000000000000 N
   0.8611111111111113    0.6481481111111110    0.2000000000000000 N
   0.8611111111111113    0.7592592222222221    0.2000000000000000 N
   0.8611111111111113    0.8703703333333334    0.2000000000000000 N
   0.0277777777777778    0.9814814444444444    0.2000000000000000 N
   0.0277777777777778    0.0925925555555556    0.2000000000000000 N
   0.0277777777777778    0.2037036666666667    0.2000000000000000 N
   0.0277777777777778    0.3148147777777778    0.2000000000000000 N
   0.0277777777777778    0.4259258888888888    0.2000000000000000 N
   0.0277777777777778    0.5370370000000000    0.2000000000000000 N
   0.0277777777777778    0.6481481111111110    0.2000000000000000 N
   0.0277777777777778    0.7592592222222221    0.2000000000000000 N
   0.0277777777777778    0.8703703333333334    0.2000000000000000 N
   0.1388888888888889    0.9814814444444444    0.2000000000000000 N
   0.1388888888888889    0.0925925555555556    0.2000000000000000 N
   0.1388888888888889    0.2037036666666667    0.2000000000000000 N
   0.1388888888888889    0.3148147777777778    0.2000000000000000 N
   0.1388888888888889    0.4259258888888888    0.2000000000000000 N
   0.1388888888888889    0.5370370000000000    0.2000000000000000 N
   0.1388888888888889    0.6481481111111110    0.2000000000000000 N
   0.1388888888888889    0.7592592222222221    0.2000000000000000 N
   0.1388888888888889    0.8703703333333334    0.2000000000000000 N
   0.2500000000000000    0.9814814444444444    0.2000000000000000 N
   0.2500000000000000    0.0925925555555556    0.2000000000000000 N
   0.2500000000000000    0.2037036666666667    0.2000000000000000 N
   0.2500000000000000    0.3148147777777778    0.2000000000000000 N
   0.2500000000000000    0.4259258888888888    0.2000000000000000 N
   0.2500000000000000    0.5370370000000000    0.2000000000000000 N
   0.2500000000000000    0.6481481111111110    0.2000000000000000 N
   0.2500000000000000    0.7592592222222221    0.2000000000000000 N
   0.2500000000000000    0.8703703333333334    0.2000000000000000 N
   0.3611111111111111    0.9814814444444444    0.2000000000000000 N
   0.3611111111111111    0.0925925555555556    0.2000000000000000 N
   0.3611111111111111    0.2037036666666667    0.2000000000000000 N
   0.3611111111111111    0.3148147777777778    0.2000000000000000 N
   0.3611111111111111    0.4259258888888888    0.2000000000000000 N