B144 N144
1.0
  30.0545399999999958    0.0000000000000000    0.0000000000000000
   0.0000000000000000   26.0279999999999987    0.0000000000000000
   0.0000000000000000    0.0000000000000000   30.0000000000000000
B N
144 144
direct
   0.9583333333333334    0.0277778333333333    0.2000000000000000 B
   0.9583333333333334    0.1944445000000000    0.2000000000000000 B
   0.9583333333333334    0.3611111666666666    0.2000000000000000 B
   0.9583333333333334    0.5277778333333333    0.2000000000000000 B
   0.9583333333333334    0.6944444999999999    0.2000000000000000 B
   0.9583333333333334    0.8611111666666666    0.2000000000000000 B
   0.1250000000000000    0.0277778333333333    0.2000000000000000 B
   0.1250000000000000    0.1944445000000000    0.2000000000000000 B
   0.1250000000000000    0.3611111666666666    0.2000000000000000 B
   0.1250000000000000    0.5277778333333333    0.2000000000000000 B
   0.1250000000000000    0.6944444999999999    0.2000000000000000 B
   0.1250000000000000    0.8611111666666666    0.2000000000000000 B
   0.2916666666666666    0.0277778333333333    0.2000000000000000 B
   0.2916666666666666    0.1944445000000000    0.2000000000000000 B
   0.2916666666666666    0.3611111666666666    0.2000000000000000 B
   0.2916666666666666    0.5277778333333333    0.2000000000000000 B
   0.2916666666666666    0.6944444999999999    0.2000000000000000 B
   0.2916666666666666    0.8611111666666666    0.2000000000000000 B
   0.4583333333333333    0.0277778333333333    0.2000000000000000 B
   0.4583333333333333    0.1944445000000000    0.2000000000000000 B
   0.4583333333333333    0.3611111666666666    0.2000000000000000 B
   0.4583333333333333    0.5277778333333333    0.2000000000000000 B
   0.4583333333333333    0.6944444999999999    0.2000000000000000 B
   0.4583333333333333    0.8611111666666666    0.2000000000000000 B
   0.6249999999999999    0.0277778333333333    0.2000000000000000 B
   0.6249999999999999    0.1944445000000000    0.2000000000000000 B
   0.6249999999999999    0.3611111666666666    0.2000000000000000 B
   0.6249999999999999    0.5277778333333333    0.2000000000000000 B
   0.6249999999999999    0.6944444999999999    0.2000000000000000 B
   0.6249999999999999    0.8611111666666666    0.2000000000000000 B
   0.7916666666666665    0.0277778333333333    0.2000000000000000 B
   0.7916666666666665    0.1944445000000000    0.2000000000000000 B
   0.7916666666666665    0.3611111666666666    0.2000000000000000 B
   0.7916666666666665    0.5277778333333333    0.2000000000000000 B
   0.7916666666666665    0.6944444999999999    0.2000000000000000 B
   0.7916666666666665    0.8611111666666666    0.2000000000000000 B
   0.0416666666666667    0.0277778333333333    0.2000000000000000 B
   0.0416666666666667    0.1944445000000000    0.2000000000000000 B
   0.0416666666666667    0.3611111666666666    0.2000000000000000 B
   0.0416666666666667    0.5277778333333333    0.2000000000000000 B
   0.0416666666666667    0.6944444999999999    0.2000000000000000 B
   0.0416666666666667    0.8611111666666666    0.2000000000000000 B
   0.2083333333333333    0.0277778333333333    0.2000000000000000 B
   0.2083333333333333    0.1944445000000000    0.2000000000000000 B
   0.2083333333333333    0.3611111666666666    0.2000000000000000 B
   0.2083333333333333    0.5277778333333333    0.2000000000000000 B
   0.2083333333333333    0.6944444999999999    0.2000000000000000 B
   0.2083333333333333    0.8611111666666666    0.2000000000000000 B
   0.3749999999999999    0.0277778333333333    0.2000000000000000 B
   0.3749999999999999    0.1944445000000000    0.2000000000000000 B
   0.3749999999999999    0.3611111666666666    0.2000000000000000 B
   0.3749999999999999    0.5277778333333333    0.2000000000000000 B
   0.3749999999999999    0.6944444999999999    0.2000000000000000 B
   0.3749999999999999    0.8611111666666666    0.2000000000000000 B
   0.5416666666666666    0.0277778333333333    0.2000000000000000 B
   0.5416666666666666    0.1944445000000000    0.2000000000000000 B
   0.5416666666666666    0.3611111666666666    0.2000000000000000 B
   0.5416666666666666    0.5277778333333333    0.2000000000000000 B
   0.5416666666666666    0.6944444999999999    0.2000000000000000 B
   0.5416666666666666    0.8611111666666666    0.2000000000000000 B
   0.7083333333333333    0.0277778333333333    0.2000000000000000 B
   0.7083333333333333    0.1944445000000000    0.2000000000000000 B
   0.7083333333333333    0.3611111666666666    0.2000000000000000 B
   0.7083333333333333    0.5277778333333333    0.2000000000000000 B
   0.7083333333333333    0.6944444999999999    0.2000000000000000 B
   0.7083333333333333    0.8611111666666666    0.2000000000000000 B
   0.8749999999999999    0.0277778333333333    0.2000000000000000 B
   0.8749999999999999    0.1944445000000000    0.2000000000000000 B
   0.8749999999999999    0.3611111666666666    0.2000000000000000 B
   0.8749999999999999    0.5277778333333333    0.2000000000000000 B
   0.8749999999999999    0.6944444999999999    0.2000000000000000 B
   0.8749999999999999    0.8611111666666666    0.2000000000000000 B
   0.0000000000000000    0.9444445000000000    0.2000000000000000 B
   0.0000000000000000    0.1111111666666666    0.2000000000000000 B
   0.0000000000000000    0.2777778333333333    0.2000000000000000 B
   0.0000000000000000    0.4444445000000000    0.2000000000000000 B
   0.0000000000000000    0.6111111666666665    0.2000000000000000 B
   0.0000000000000000    0.7777778333333333    0.2000000000000000 B
   0.1666666666666666    0.9444445000000000    0.2000000000000000 B
   0.1666666666666666    0.1111111666666666    0.2000000000000000 B
   0.1666666666666666    0.2777778333333333    0.2000000000000000 B
   0.1666666666666666    0.4444445000000000    0.2000000000000000 B
   0.1666666666666666    0.6111111666666665    0.2000000000000000 B
   0.1666666666666666    0.7777778333333333    0.2000000000000000 B
   0.3333333333333333    0.9444445000000000    0.2000000000000000 B
   0.3333333333333333    0.1111111666666666    0.2000000000000000 B
   0.3333333333333333    0.2777778333333333    0.2000000000000000 B
   0.3333333333333333    0.4444445000000000    0.2000000000000000 B
   0.3333333333333333    0.6111111666666665    0.2000000000000000 B
   0.3333333333333333    0.7777778333333333    0.2000000000000000 B
   0.4999999999999999    0.9444445000000000    0.2000000000000000 B
   0.4999999999999999    0.1111111666666666    0.2000000000000000 B
   0.4999999999999999    0.2777778333333333    0.2000000000000000 B
   0.4999999999999999    0.4444445000000000    0.2000000000000000 B
   0.4999999999999999    0.6111111666666665    0.2000000000000000 B
   0.4999999999999999    0.7777778333333333    0.2000000000000000 B
   0.6666666666666665    0.9444445000000000    0.2000000000000000 B
   0.6666666666666665    0.1111111666666666    0.2000000000000000 B
   0.6666666666666665    0.2777778333333333    0.2000000000000000 B
   0.6666666666666665    0.4444445000000000    0.2000000000000000 B
   0.6666666666666665    0.6111111666666665    0.2000000000000000 B
   0.6666666666666665    0.7777778333333333    0.2000000000000000 B
   0.8333333333333333    0.9444445000000000    0.2000000000000000 B
   0.8333333333333333    0.1111111666666666    0.2000000000000000 B
   0.8333333333333333    0.2777778333333333    0.2000000000000000 B
   0.8333333333333333    0.4444445000000000    0.2000000000000000 B
   0.8333333333333333    0.6111111666666665    0.2000000000000000 B
   0.8333333333333333    0.7777778333333333    0.2000000000000000 B
   0.0833333333333333    0.9444445000000000    0.2000000000000000 B
   0.0833333333333333    0.1111111666666666    0.2000000000000000 B
   0.0833333333333333    0.2777778333333333    0.2000000000000000 B
   0.0833333333333333    0.4444445000000000    0.2000000000000000 B
   0.0833333333333333    0.6111111666666665    0.2000000000000000 B
   0.0833333333333333    0.7777778333333333    0.2000000000000000 B
   0.2500000000000000    0.9444445000000000    0.2000000000000000 B
   0.2500000000000000    0.1111111666666666    0.2000000000000000 B
   0.2500000000000000    0.2777778333333333    0.2000000000000000 B
   0.2500000000000000    0.4444445000000000    0.2000000000000000 B
   0.2500000000000000    0.6111111666666665    0.2000000000000000 B
   0.2500000000000000    0.7777778333333333    0.2000000000000000 B
   0.4166666666666666    0.9444445000000000    0.2000000000000000 B
   0.4166666666666666    0.1111111666666666    0.2000000000000000 B
   0.4166666666666666    0.2777778333333333    0.2000000000000000 B
   0.4166666666666666    0.4444445000000000    0.2000000000000000 B
   0.4166666666666666    0.6111111666666665    0.2000000000000000 B
   0.4166666666666666    0.7777778333333333    0.2000000000000000 B
   0.5833333333333333    0.9444445000000000    0.2000000000000000 B
   0.5833333333333333    0.1111111666666666    0.2000000000000000 B
   0.5833333333333333    0.2777778333333333    0.2000000000000000 B
   0.5833333333333333    0.4444445000000000    0.2000000000000000 B
   0.5833333333333333    0.6111111666666665    0.2000000000000000 B
   0.5833333333333333    0.7777778333333333    0.2000000000000000 B
   0.7499999999999999    0.9444445000000000    0.2000000000000000 B
   0.7499999999999999    0.1111111666666666    0.2000000000000000 B
   0.7499999999999999    0.2777778333333333    0.2000000000000000 B
   0.7499999999999999    0.4444445000000000    0.2000000000000000 B
   0.7499999999999999    0.6111111666666665    0.2000000000000000 B
   0.7499999999999999    0.7777778333333333    0.2000000000000000 B
   0.9166666666666666    0.9444445000000000    0.2000000000000000 B
   0.9166666666666666    0.1111111666666666    0.2000000000000000 B
   0.9166666666666666    0.2777778333333333    0.2000000000000000 B
   0.9166666666666666    0.4444445000000000    0.2000000000000000 B
   0.9166666666666666    0.6111111666666665    0.2000000000000000 B
   0.9166666666666666    0.7777778333333333    0.2000000000000000 B
   0.9583333333333334    0.9722221666666666    0.2000000000000000 N
   0.9583333333333334    0.1388888333333333    0.2000000000000000 N
   0.9583333333333334    0.3055555000000000    0.2000000000000000 N
   0.9583333333333334    0.4722221666666667    0.2000000000000000 N
   0.9583333333333334    0.6388888333333331    0.2000000000000000 N
   0.9583333333333334    0.8055554999999999    0.2000000000000000 N
   0.1250000000000000    0.9722221666666666    0.2000000000000000 N
   0.1250000000000000    0.1388888333333333    0.2000000000000000 N
   0.1250000000000000    0.3055555000000000    0.2000000000000000 N
   0.1250000000000000    0.4722221666666667    0.2000000000000000 N
   0.1250000000000000    0.6388888333333331    0.2000000000000000 N
   0.1250000000000000    0.8055554999999999    0.2000000000000000 N
   0.2916666666666666    0.9722221666666666    0.2000000000000000 N
   0.2916666666666666    0.1388888333333333    0.2000000000000000 N
   0.2916666666666666    0.3055555000000000    0.2000000000000000 N
   0.2916666666666666    0.4722221666666667    0.2000000000000000 N
   0.2916666666666666    0.6388888333333331    0.2000000000000000 N
   0.2916666666666666    0.8055554999999999    0.2000000000000000 N
   0.4583333333333333    0.9722221666666666    0.2000000000000000 N
   0.4583333333333333    0.1388888333333333    0.2000000000000000 N
   0.4583333333333333    0.3055555000000000    0.2000000000000000 N
   0.4583333333333333    0.4722221666666667    0.2000000000000000 N
   0.4583333333333333    0.6388888333333331    0.2000000000000000 N
   0.4583333333333333    0.8055554999999999    0.2000000000000000 N
   0.6249999999999999    0.9722221666666666    0.2000000000000000 N
   0.6249999999999999    0.1388888333333333    0.2000000000000000 N
   0.6249999999999999    0.3055555000000000    0.2000000000000000 N
   0.6249999999999999    0.4722221666666667    0.2000000000000000 N
   0.6249999999999999    0.6388888333333331    0.2000000000000000 N
   0.6249999999999999    0.8055554999999999    0.2000000000000000 N
   0.7916666666666665    0.9722221666666666    0.2000000000000000 N
   0.7916666666666665    0.1388888333333333    0.2000000000000000 N
   0.7916666666666665    0.3055555000000000    0.2000000000000000 N
   0.7916666666666665    0.4722221666666667    0.2000000000000000 N
   0.7916666666666665    0.6388888333333331    0.2000000000000000 N
   0.7916666666666665    0.8055554999999999    0.2000000000000000 N
   0.0416666666666667    0.9722221666666666    0.2000000000000000 N
   0.0416666666666667    0.1388888333333333    0.2000000000000000 N
   0.0416666666666667    0.3055555000000000    0.2000000000000000 N
   0.0416666666666667    0.4722221666666667    0.2000000000000000 N
   0.0416666666666667    0.6388888333333331    0.2000000000000000 N
   0.0416666666666667    0.8055554999999999    0.2000000000000000 N
   0.2083333333333333    0.9722221666666666    0.2000000000000000 N
   0.2083333333333333    0.1388888333333333    0.2000000000000000 N
   0.2083333333333333    0.3055555000000000    0.2000000000000000 N
   0.2083333333333333    0.4722221666666667    0.2000000000000000 N
   0.2083333333333333    0.6388888333333331    0.2000000000000000 N
   0.2083333333333333    0.8055554999999999    0.2000000000000000 N
   0.3749999999999999    0.9722221666666666    0.2000000000000000 N
   0.3749999999999999    0.1388888333333333    0.2000000000000000 N
   0.3749999999999999    0.3055555000000000    0.2000000000000000 N
   0.3749999999999999    0.4722221666666667    0.2000000000000000 N
   0.3749999999999999    0.6388888333333331    0.2000000000000000 N
   0.3749999999999999    0.8055554999999999    0.2000000000000000 N
   0.5416666666666666    0.9722221666666666    0.2000000000000000 N
   0.5416666666666666    0.1388888333333333    0.2000000000000000 N
   0.5416666666666666    0.3055555000000000    0.2000000000000000 N
   0.5416666666666666    0.4722221666666667    0.2000000000000000 N
   0.5416666666666666    0.6388888333333331    0.2000000000000000 N
   0.5416666666666666    0.8055554999999999    0.2000000000000000 N
   0.7083333333333333    0.9722221666666666    0.2000000000000000 N
   0.7083333333333333    0.1388888333333333    0.2000000000000000 N
   0.7083333333333333    0.3055555000000000    0.2000000000000000 N
   0.7083333333333333    0.4722221666666667    0.2000000000000000 N
   0.7083333333333333    0.6388888333333331    0.2000000000000000 N
   0.7083333333333333    0.8055554999999999    0.2000000000000000 N
   0.8749999999999999    0.9722221666666666    0.2000000000000000 N
   0.8749999999999999    0.1388888333333333    0.2000000000000000 N
   0.8749999999999999    0.3055555000000000    0.2000000000000000 N
   0.8749999999999999    0.4722221666666667    0.2000000000000000 N
   0.8749999999999999    0.6388888333333331    0.2000000000000000 N
   0.8749999999999999    0.8055554999999999    0.2000000000000000 N
   0.0000000000000000    0.0555555000000000    0.2000000000000000 N
   0.0000000000000000    0.2222221666666666    0.2000000000000000 N
   0.0000000000000000    0.3888888333333332    0.2000000000000000 N
   0.0000000000000000    0.5555555000000000    0.2000000000000000 N
   0.0000000000000000    0.7222221666666665    0.2000000000000000 N
   0.0000000000000000    0.8888888333333332    0.2000000000000000 N
   0.1666666666666666    0.0555555000000000    0.2000000000000000 N
   0.1666666666666666    0.2222221666666666    0.2000000000000000 N
   0.1666666666666666    0.3888888333333332    0.2000000000000000 N
   0.1666666666666666    0.5555555000000000    0.2000000000000000 N
   0.1666666666666666    0.7222221666666665    0.2000000000000000 N
   0.1666666666666666    0.8888888333333332    0.2000000000000000 N
   0.3333333333333333    0.0555555000000000    0.2000000000000000 N
   0.3333333333333333    0.2222221666666666    0.2000000000000000 N
   0.3333333333333333    0.3888888333333332    0.2000000000000000 N
   0.3333333333333333    0.5555555000000000    0.2000000000000000 N
   0.3333333333333333    0.7222221666666665    0.2000000000000000 N
   0.3333333333333333    0.8888888333333332    0.2000000000000000 N
   0.4999999999999999    0.0555555000000000    0.2000000000000000 N
   0.4999999999999999    0.2222221666666666    0.2000000000000000 N
   0.4999999999999999    0.3888888333333332    0.2000000000000000 N
   0.4999999999999999    0.5555555000000000    0.2000000000000000 N
   0.4999999999999999    0.7222221666666665    0.2000000000000000 N
   0.4999999999999999    0.8888888333333332    0.2000000000000000 N
   0.6666666666666665    0.0555555000000000    0.2000000000000000 N
   0.6666666666666665    0.2222221666666666    0.2000000000000000 N
   0.6666666666666665    0.3888888333333332    0.2000000000000000 N
   0.6666666666666665    0.5555555000000000    0.2000000000000000 N
   0.6666666666666665    0.7222221666666665    0.2000000000000000 N
   0.6666666666666665    0.8888888333333332    0.2000000000000000 N
   0.8333333333333333    0.0555555000000000    0.2000000000000000 N
   0.8333333333333333    0.2222221666666666    0.2000000000000000 N
   0.8333333333333333    0.3888888333333332    0.2000000000000000 N
   0.8333333333333333    0.5555555000000000    0.2000000000000000 N
   0.8333333333333333    0.7222221666666665    0.2000000000000000 N
   0.8333333333333333    0.8888888333333332    0.2000000000000000 N
   0.0833333333333333    0.0555555000000000    0.2000000000000000 N
   0.0833333333333333    0.2222221666666666    0.2000000000000000 N
   0.0833333333333333    0.3888888333333332    0.2000000000000000 N
   0.0833333333333333    0.5555555000000000    0.2000000000000000 N
   0.0833333333333333    0.7222221666666665    0.2000000000000000 N
   0.0833333333333333    0.8888888333333332    0.2000000000000000 N
   0.2500000000000000    0.0555555000000000    0.2000000000000000 N
   0.2500000000000000    0.2222221666666666    0.2000000000000000 N
   0.2500000000000000    0.3888888333333332    0.2000000000000000 N
   0.2500000000000000    0.5555555000000000    0.2000000000000000 N
   0.2500000000000000    0.7222221666666665    0.2000000000000000 N
   0.2500000000000000    0.8888888333333332    0.2000000000000000 N
   0.4166666666666666    0.0555555000000000    0.2000000000000000 N
   0.4166666666666666    0.2222221666666666    0.2000000000000000 N
   0.4166666666666666    0.3888888333333332    0.2000000000000000 N
   0.4166666666666666    0.5555555000000000    0.2000000000000000 N
   0.4166666666666666    0.7222221666666665    0.2000000000000000 N
   0.4166666666666666    0.8888888333333332    0.2000000000000000 N
   0.5833333333333333    0.0555555000000000    0.2000000000000000 N
   0.5833333333333333    0.2222221666666666    0.2000000000000000 N
   0.5833333333333333    0.3888888333333332    0.2000000000000000 N
   0.5833333333333333    0.5555555000000000    0.2000000000000000 N
   0.5833333333333333    0.7222221666666665    0.2000000000000000 N
   0.5833333333333333    0.8888888333333332    0.2000000000000000 N
   0.7499999999999999    0.0555555000000000    0.2000000000000000 N
   0.7499999999999999    0.2222221666666666    0.2000000000000000 N
   0.7499999999999999    0.3888888333333332    0.2000000000000000 N
   0.7499999999999999    0.5555555000000000    0.2000000000000000 N
   0.7499999999999999    0.7222221666666665    0.2000000000000000 N
   0.7499999999999999    0.8888888333333332    0.2000000000000000 N
   0.9166666666666666    0.0555555000000000    0.2000000000000000 N
   0.9166666666666666    0.2222221666666666    0.2000000000000000 N
   0.9166666666666666    0.3888888333333332    0.2000000000000000 N
   0.9166666666666666    0.5555555000000000    0.2000000000000000 N
   0.9166666666666666    0.7222221666666665    0.2000000000000000 N
   0.9166666666666666    0.8888888333333332    0.2000000000000000 N
