B64 N64
1.0
20.036360 0.000000 0.000000
0.000000 17.352000 0.000000
0.000000 0.000000 30.000000
B N
64 64
direct
0.937500 0.041667 0.200000 B
0.937500 0.291667 0.200000 B
0.937500 0.541667 0.200000 B
0.937500 0.791667 0.200000 B
0.187500 0.041667 0.200000 B
0.187500 0.291667 0.200000 B
0.187500 0.541667 0.200000 B
0.187500 0.791667 0.200000 B
0.437500 0.041667 0.200000 B
0.437500 0.291667 0.200000 B
0.437500 0.541667 0.200000 B
0.437500 0.791667 0.200000 B
0.687500 0.041667 0.200000 B
0.687500 0.291667 0.200000 B
0.687500 0.541667 0.200000 B
0.687500 0.791667 0.200000 B
0.062500 0.041667 0.200000 B
0.062500 0.291667 0.200000 B
0.062500 0.541667 0.200000 B
0.062500 0.791667 0.200000 B
0.312500 0.041667 0.200000 B
0.312500 0.291667 0.200000 B
0.312500 0.541667 0.200000 B
0.312500 0.791667 0.200000 B
0.562500 0.041667 0.200000 B
0.562500 0.291667 0.200000 B
0.562500 0.541667 0.200000 B
0.562500 0.791667 0.200000 B
0.812500 0.041667 0.200000 B
0.812500 0.291667 0.200000 B
0.812500 0.541667 0.200000 B
0.812500 0.791667 0.200000 B
0.000000 0.916667 0.200000 B
0.000000 0.166667 0.200000 B
0.000000 0.416667 0.200000 B
0.000000 0.666667 0.200000 B
0.250000 0.916667 0.200000 B
0.250000 0.166667 0.200000 B
0.250000 0.416667 0.200000 B
0.250000 0.666667 0.200000 B
0.500000 0.916667 0.200000 B
0.500000 0.166667 0.200000 B
0.500000 0.416667 0.200000 B
0.500000 0.666667 0.200000 B
0.750000 0.916667 0.200000 B
0.750000 0.166667 0.200000 B
0.750000 0.416667 0.200000 B
0.750000 0.666667 0.200000 B
0.125000 0.916667 0.200000 B
0.125000 0.166667 0.200000 B
0.125000 0.416667 0.200000 B
0.125000 0.666667 0.200000 B
0.375000 0.916667 0.200000 B
0.375000 0.166667 0.200000 B
0.375000 0.416667 0.200000 B
0.375000 0.666667 0.200000 B
0.625000 0.916667 0.200000 B
0.625000 0.166667 0.200000 B
0.625000 0.416667 0.200000 B
0.625000 0.666667 0.200000 B
0.875000 0.916667 0.200000 B
0.875000 0.166667 0.200000 B
0.875000 0.416667 0.200000 B
0.875000 0.666667 0.200000 B
0.937500 0.958333 0.200000 N
0.937500 0.208333 0.200000 N
0.937500 0.458333 0.200000 N
0.937500 0.708333 0.200000 N
0.187500 0.958333 0.200000 N
0.187500 0.208333 0.200000 N
0.187500 0.458333 0.200000 N
0.187500 0.708333 0.200000 N
0.437500 0.958333 0.200000 N
0.437500 0.208333 0.200000 N
0.437500 0.458333 0.200000 N
0.437500 0.708333 0.200000 N
0.687500 0.958333 0.200000 N
0.687500 0.208333 0.200000 N
0.687500 0.458333 0.200000 N
0.687500 0.708333 0.200000 N
0.062500 0.958333 0.200000 N
0.062500 0.208333 0.200000 N
0.062500 0.458333 0.200000 N
0.062500 0.708333 0.200000 N
0.312500 0.958333 0.200000 N
0.312500 0.208333 0.200000 N
0.312500 0.458333 0.200000 N
0.312500 0.708333 0.200000 N
0.562500 0.958333 0.200000 N
0.562500 0.208333 0.200000 N
0.562500 0.458333 0.200000 N
0.562500 0.708333 0.200000 N
0.812500 0.958333 0.200000 N
0.812500 0.208333 0.200000 N
0.812500 0.458333 0.200000 N
0.812500 0.708333 0.200000 N
0.000000 0.083333 0.200000 N
0.000000 0.333333 0.200000 N
0.000000 0.583333 0.200000 N
0.000000 0.833333 0.200000 N
0.250000 0.083333 0.200000 N
0.250000 0.333333 0.200000 N
0.250000 0.583333 0.200000 N
0.250000 0.833333 0.200000 N
0.500000 0.083333 0.200000 N
0.500000 0.333333 0.200000 N
0.500000 0.583333 0.200000 N
0.500000 0.833333 0.200000 N
0.750000 0.083333 0.200000 N
0.750000 0.333333 0.200000 N
0.750000 0.583333 0.200000 N
0.750000 0.833333 0.200000 N
0.125000 0.083333 0.200000 N
0.125000 0.333333 0.200000 N
0.125000 0.583333 0.200000 N
0.125000 0.833333 0.200000 N
0.375000 0.083333 0.200000 N
0.375000 0.333333 0.200000 N
0.375000 0.583333 0.200000 N
0.375000 0.833333 0.200000 N
0.625000 0.083333 0.200000 N
0.625000 0.333333 0.200000 N
0.625000 0.583333 0.200000 N
0.625000 0.833333 0.200000 N
0.875000 0.083333 0.200000 N
0.875000 0.333333 0.200000 N
0.875000 0.583333 0.200000 N
0.875000 0.833333 0.200000 N
