B256 H128 N256 O64
1.0
  40.0727199999999968    0.0000000000000000    0.0000000000000000
   0.0000000000000000   34.7040000000000006    0.0000000000000000
   0.0000000000000000    0.0000000000000000   30.0000000000000000
B N O H
256 256 64 128
direct
   0.9687500000000000    0.0208333750000000    0.2000000000000000 B
   0.9687500000000000    0.1458333750000000    0.2000000000000000 B
   0.9687500000000000    0.2708333750000000    0.2000000000000000 B
   0.9687500000000000    0.3958333749999999    0.2000000000000000 B
   0.9687500000000000    0.5208333750000000    0.2000000000000000 B
   0.9687500000000000    0.6458333750000000    0.2000000000000000 B
   0.9687500000000000    0.7708333749999999    0.2000000000000000 B
   0.9687500000000000    0.8958333749999999    0.2000000000000000 B
   0.0937500000000000    0.0208333750000000    0.2000000000000000 B
   0.0937500000000000    0.1458333750000000    0.2000000000000000 B
   0.0937500000000000    0.2708333750000000    0.2000000000000000 B
   0.0937500000000000    0.3958333749999999    0.2000000000000000 B
   0.0937500000000000    0.5208333750000000    0.2000000000000000 B
   0.0937500000000000    0.6458333750000000    0.2000000000000000 B
   0.0937500000000000    0.7708333749999999    0.2000000000000000 B
   0.0937500000000000    0.8958333749999999    0.2000000000000000 B
   0.2187500000000000    0.0208333750000000    0.2000000000000000 B
   0.2187500000000000    0.1458333750000000    0.2000000000000000 B
   0.2187500000000000    0.2708333750000000    0.2000000000000000 B
   0.2187500000000000    0.3958333749999999    0.2000000000000000 B
   0.2187500000000000    0.5208333750000000    0.2000000000000000 B
   0.2187500000000000    0.6458333750000000    0.2000000000000000 B
   0.2187500000000000    0.7708333749999999    0.2000000000000000 B
   0.2187500000000000    0.8958333749999999    0.2000000000000000 B
   0.3437500000000000    0.0208333750000000    0.2000000000000000 B
   0.3437500000000000    0.1458333750000000    0.2000000000000000 B
   0.3437500000000000    0.2708333750000000    0.2000000000000000 B
   0.3437500000000000    0.3958333749999999    0.2000000000000000 B
   0.3437500000000000    0.5208333750000000    0.2000000000000000 B
   0.3437500000000000    0.6458333750000000    0.2000000000000000 B
   0.3437500000000000    0.7708333749999999    0.2000000000000000 B
   0.3437500000000000    0.8958333749999999    0.2000000000000000 B
   0.4687500000000000    0.0208333750000000    0.2000000000000000 B
   0.4687500000000000    0.1458333750000000    0.2000000000000000 B
   0.4687500000000000    0.2708333750000000    0.2000000000000000 B
   0.4687500000000000    0.3958333749999999    0.2000000000000000 B
   0.4687500000000000    0.5208333750000000    0.2000000000000000 B
   0.4687500000000000    0.6458333750000000    0.2000000000000000 B
   0.4687500000000000    0.7708333749999999    0.2000000000000000 B
   0.4687500000000000    0.8958333749999999    0.2000000000000000 B
   0.5937500000000000    0.0208333750000000    0.2000000000000000 B
   0.5937500000000000    0.1458333750000000    0.2000000000000000 B
   0.5937500000000000    0.2708333750000000    0.2000000000000000 B
   0.5937500000000000    0.3958333749999999    0.2000000000000000 B
   0.5937500000000000    0.5208333750000000    0.2000000000000000 B
   0.5937500000000000    0.6458333750000000    0.2000000000000000 B
   0.5937500000000000    0.7708333749999999    0.2000000000000000 B
   0.5937500000000000    0.8958333749999999    0.2000000000000000 B
   0.7187500000000000    0.0208333750000000    0.2000000000000000 B
   0.7187500000000000    0.1458333750000000    0.2000000000000000 B
   0.7187500000000000    0.2708333750000000    0.2000000000000000 B
   0.7187500000000000    0.3958333749999999    0.2000000000000000 B
   0.7187500000000000    0.5208333750000000    0.2000000000000000 B
   0.7187500000000000    0.6458333750000000    0.2000000000000000 B
   0.7187500000000000    0.7708333749999999    0.2000000000000000 B
   0.7187500000000000    0.8958333749999999    0.2000000000000000 B
   0.8437500000000001    0.0208333750000000    0.2000000000000000 B
   0.8437500000000001    0.1458333750000000    0.2000000000000000 B
   0.8437500000000001    0.2708333750000000    0.2000000000000000 B
   0.8437500000000001    0.3958333749999999    0.2000000000000000 B
   0.8437500000000001    0.5208333750000000    0.2000000000000000 B
   0.8437500000000001    0.6458333750000000    0.2000000000000000 B
   0.8437500000000001    0.7708333749999999    0.2000000000000000 B
   0.8437500000000001    0.8958333749999999    0.2000000000000000 B
   0.0312500000000000    0.0208333750000000    0.2000000000000000 B
   0.0312500000000000    0.1458333750000000    0.2000000000000000 B
   0.0312500000000000    0.2708333750000000    0.2000000000000000 B
   0.0312500000000000    0.3958333749999999    0.2000000000000000 B
   0.0312500000000000    0.5208333750000000    0.2000000000000000 B
   0.0312500000000000    0.6458333750000000    0.2000000000000000 B
   0.0312500000000000    0.7708333749999999    0.2000000000000000 B
   0.0312500000000000    0.8958333749999999    0.2000000000000000 B
   0.1562500000000000    0.0208333750000000    0.2000000000000000 B
   0.1562500000000000    0.1458333750000000    0.2000000000000000 B
   0.1562500000000000    0.2708333750000000    0.2000000000000000 B
   0.1562500000000000    0.3958333749999999    0.2000000000000000 B
   0.1562500000000000    0.5208333750000000    0.2000000000000000 B
   0.1562500000000000    0.6458333750000000    0.2000000000000000 B
   0.1562500000000000    0.7708333749999999    0.2000000000000000 B
   0.1562500000000000    0.8958333749999999    0.2000000000000000 B
   0.2812500000000000    0.0208333750000000    0.2000000000000000 B
   0.2812500000000000    0.1458333750000000    0.2000000000000000 B
   0.2812500000000000    0.2708333750000000    0.2000000000000000 B
   0.2812500000000000    0.3958333749999999    0.2000000000000000 B
   0.2812500000000000    0.5208333750000000    0.2000000000000000 B
   0.2812500000000000    0.6458333750000000    0.2000000000000000 B
   0.2812500000000000    0.7708333749999999    0.2000000000000000 B
   0.2812500000000000    0.8958333749999999    0.2000000000000000 B
   0.4062500000000000    0.0208333750000000    0.2000000000000000 B
   0.4062500000000000    0.1458333750000000    0.2000000000000000 B
   0.4062500000000000    0.2708333750000000    0.2000000000000000 B
   0.4062500000000000    0.3958333749999999    0.2000000000000000 B
   0.4062500000000000    0.5208333750000000    0.2000000000000000 B
   0.4062500000000000    0.6458333750000000    0.2000000000000000 B
   0.4062500000000000    0.7708333749999999    0.2000000000000000 B
   0.4062500000000000    0.8958333749999999    0.2000000000000000 B
   0.5312500000000000    0.0208333750000000    0.2000000000000000 B
   0.5312500000000000    0.1458333750000000    0.2000000000000000 B
   0.5312500000000000    0.2708333750000000    0.2000000000000000 B
   0.5312500000000000    0.3958333749999999    0.2000000000000000 B
   0.5312500000000000    0.5208333750000000    0.2000000000000000 B
   0.5312500000000000    0.6458333750000000    0.2000000000000000 B
   0.5312500000000000    0.7708333749999999    0.2000000000000000 B
   0.5312500000000000    0.8958333749999999    0.2000000000000000 B
   0.6562500000000001    0.0208333750000000    0.2000000000000000 B
   0.6562500000000001    0.1458333750000000    0.2000000000000000 B
   0.6562500000000001    0.2708333750000000    0.2000000000000000 B
   0.6562500000000001    0.3958333749999999    0.2000000000000000 B
   0.6562500000000001    0.5208333750000000    0.2000000000000000 B
   0.6562500000000001    0.6458333750000000    0.2000000000000000 B
   0.6562500000000001    0.7708333749999999    0.2000000000000000 B
   0.6562500000000001    0.8958333749999999    0.2000000000000000 B
   0.7812500000000000    0.0208333750000000    0.2000000000000000 B
   0.7812500000000000    0.1458333750000000    0.2000000000000000 B
   0.7812500000000000    0.2708333750000000    0.2000000000000000 B
   0.7812500000000000    0.3958333749999999    0.2000000000000000 B
   0.7812500000000000    0.5208333750000000    0.2000000000000000 B
   0.7812500000000000    0.6458333750000000    0.2000000000000000 B
   0.7812500000000000    0.7708333749999999    0.2000000000000000 B
   0.7812500000000000    0.8958333749999999    0.2000000000000000 B
   0.9062500000000000    0.0208333750000000    0.2000000000000000 B
   0.9062500000000000    0.1458333750000000    0.2000000000000000 B
   0.9062500000000000    0.2708333750000000    0.2000000000000000 B
   0.9062500000000000    0.3958333749999999    0.2000000000000000 B
   0.9062500000000000    0.5208333750000000    0.2000000000000000 B
   0.9062500000000000    0.6458333750000000    0.2000000000000000 B
   0.9062500000000000    0.7708333749999999    0.2000000000000000 B
   0.9062500000000000    0.8958333749999999    0.2000000000000000 B
   0.0000000000000000    0.9583333750000000    0.2000000000000000 B
   0.0000000000000000    0.0833333750000000    0.2000000000000000 B
   0.0000000000000000    0.2083333750000000    0.2000000000000000 B
   0.0000000000000000    0.3333333750000000    0.2000000000000000 B
   0.0000000000000000    0.4583333750000000    0.2000000000000000 B
   0.0000000000000000    0.5833333750000000    0.2000000000000000 B
   0.0000000000000000    0.7083333749999999    0.2000000000000000 B
   0.0000000000000000    0.8333333749999999    0.2000000000000000 B
   0.1250000000000000    0.9583333750000000    0.2000000000000000 B
   0.1250000000000000    0.0833333750000000    0.2000000000000000 B
   0.1250000000000000    0.2083333750000000    0.2000000000000000 B
   0.1250000000000000    0.3333333750000000    0.2000000000000000 B
   0.1250000000000000    0.4583333750000000    0.2000000000000000 B
   0.1250000000000000    0.5833333750000000    0.2000000000000000 B
   0.1250000000000000    0.7083333749999999    0.2000000000000000 B
   0.1250000000000000    0.8333333749999999    0.2000000000000000 B
   0.2500000000000000    0.9583333750000000    0.2000000000000000 B
   0.2500000000000000    0.0833333750000000    0.2000000000000000 B
   0.2500000000000000    0.2083333750000000    0.2000000000000000 B
   0.2500000000000000    0.3333333750000000    0.2000000000000000 B
   0.2500000000000000    0.4583333750000000    0.2000000000000000 B
   0.2500000000000000    0.5833333750000000    0.2000000000000000 B
   0.2500000000000000    0.7083333749999999    0.2000000000000000 B
   0.2500000000000000    0.8333333749999999    0.2000000000000000 B
   0.3750000000000000    0.9583333750000000    0.2000000000000000 B
   0.3750000000000000    0.0833333750000000    0.2000000000000000 B
   0.3750000000000000    0.2083333750000000    0.2000000000000000 B
   0.3750000000000000    0.3333333750000000    0.2000000000000000 B
   0.3750000000000000    0.4583333750000000    0.2000000000000000 B
   0.3750000000000000    0.5833333750000000    0.2000000000000000 B
   0.3750000000000000    0.7083333749999999    0.2000000000000000 B
   0.3750000000000000    0.8333333749999999    0.2000000000000000 B
   0.5000000000000000    0.9583333750000000    0.2000000000000000 B
   0.5000000000000000    0.0833333750000000    0.2000000000000000 B
   0.5000000000000000    0.2083333750000000    0.2000000000000000 B
   0.5000000000000000    0.3333333750000000    0.2000000000000000 B
   0.5000000000000000    0.4583333750000000    0.2000000000000000 B
   0.5000000000000000    0.5833333750000000    0.2000000000000000 B
   0.5000000000000000    0.7083333749999999    0.2000000000000000 B
   0.5000000000000000    0.8333333749999999    0.2000000000000000 B
   0.6250000000000001    0.9583333750000000    0.2000000000000000 B
   0.6250000000000001    0.0833333750000000    0.2000000000000000 B
   0.6250000000000001    0.2083333750000000    0.2000000000000000 B
   0.6250000000000001    0.3333333750000000    0.2000000000000000 B
   0.6250000000000001    0.4583333750000000    0.2000000000000000 B
   0.6250000000000001    0.5833333750000000    0.2000000000000000 B
   0.6250000000000001    0.7083333749999999    0.2000000000000000 B
   0.6250000000000001    0.8333333749999999    0.2000000000000000 B
   0.7500000000000000    0.9583333750000000    0.2000000000000000 B
   0.7500000000000000    0.0833333750000000    0.2000000000000000 B
   0.7500000000000000    0.2083333750000000    0.2000000000000000 B
   0.7500000000000000    0.3333333750000000    0.2000000000000000 B
   0.7500000000000000    0.4583333750000000    0.2000000000000000 B
   0.7500000000000000    0.5833333750000000    0.2000000000000000 B
   0.7500000000000000    0.7083333749999999    0.2000000000000000 B
   0.7500000000000000    0.8333333749999999    0.2000000000000000 B
   0.8750000000000000    0.9583333750000000    0.2000000000000000 B
   0.8750000000000000    0.0833333750000000    0.2000000000000000 B
   0.8750000000000000    0.2083333750000000    0.2000000000000000 B
   0.8750000000000000    0.3333333750000000    0.2000000000000000 B
   0.8750000000000000    0.4583333750000000    0.2000000000000000 B
   0.8750000000000000    0.5833333750000000    0.2000000000000000 B
   0.8750000000000000    0.7083333749999999    0.2000000000000000 B
   0.8750000000000000    0.8333333749999999    0.2000000000000000 B
   0.0625000000000000    0.9583333750000000    0.2000000000000000 B
   0.0625000000000000    0.0833333750000000    0.2000000000000000 B
   0.0625000000000000    0.2083333750000000    0.2000000000000000 B
   0.0625000000000000    0.3333333750000000    0.2000000000000000 B
   0.0625000000000000    0.4583333750000000    0.2000000000000000 B
   0.0625000000000000    0.5833333750000000    0.2000000000000000 B
   0.0625000000000000    0.7083333749999999    0.2000000000000000 B
   0.0625000000000000    0.8333333749999999    0.2000000000000000 B
   0.1875000000000000    0.9583333750000000    0.2000000000000000 B
   0.1875000000000000    0.0833333750000000    0.2000000000000000 B
   0.1875000000000000    0.2083333750000000    0.2000000000000000 B
   0.1875000000000000    0.3333333750000000    0.2000000000000000 B
   0.1875000000000000    0.4583333750000000    0.2000000000000000 B
   0.1875000000000000    0.5833333750000000    0.2000000000000000 B
   0.1875000000000000    0.7083333749999999    0.2000000000000000 B
   0.1875000000000000    0.8333333749999999    0.2000000000000000 B
   0.3125000000000001    0.9583333750000000    0.2000000000000000 B
   0.3125000000000001    0.0833333750000000    0.2000000000000000 B
   0.3125000000000001    0.2083333750000000    0.2000000000000000 B
   0.3125000000000001    0.3333333750000000    0.2000000000000000 B
   0.3125000000000001    0.4583333750000000    0.2000000000000000 B
   0.3125000000000001    0.5833333750000000    0.2000000000000000 B
   0.3125000000000001    0.7083333749999999    0.2000000000000000 B
   0.3125000000000001    0.8333333749999999    0.2000000000000000 B
   0.4375000000000000    0.9583333750000000    0.2000000000000000 B
   0.4375000000000000    0.0833333750000000    0.2000000000000000 B
   0.4375000000000000    0.2083333750000000    0.2000000000000000 B
   0.4375000000000000    0.3333333750000000    0.2000000000000000 B
   0.4375000000000000    0.4583333750000000    0.2000000000000000 B
   0.4375000000000000    0.5833333750000000    0.2000000000000000 B
   0.4375000000000000    0.7083333749999999    0.2000000000000000 B
   0.4375000000000000    0.8333333749999999    0.2000000000000000 B
   0.5625000000000000    0.9583333750000000    0.2000000000000000 B
   0.5625000000000000    0.0833333750000000    0.2000000000000000 B
   0.5625000000000000    0.2083333750000000    0.2000000000000000 B
   0.5625000000000000    0.3333333750000000    0.2000000000000000 B
   0.5625000000000000    0.4583333750000000    0.2000000000000000 B
   0.5625000000000000    0.5833333750000000    0.2000000000000000 B
   0.5625000000000000    0.7083333749999999    0.2000000000000000 B
   0.5625000000000000    0.8333333749999999    0.2000000000000000 B
   0.6875000000000001    0.9583333750000000    0.2000000000000000 B
   0.6875000000000001    0.0833333750000000    0.2000000000000000 B
   0.6875000000000001    0.2083333750000000    0.2000000000000000 B
   0.6875000000000001    0.3333333750000000    0.2000000000000000 B
   0.6875000000000001    0.4583333750000000    0.2000000000000000 B
   0.6875000000000001    0.5833333750000000    0.2000000000000000 B
   0.6875000000000001    0.7083333749999999    0.2000000000000000 B
   0.6875000000000001    0.8333333749999999    0.2000000000000000 B
   0.8125000000000000    0.9583333750000000    0.2000000000000000 B
   0.8125000000000000    0.0833333750000000    0.2000000000000000 B
   0.8125000000000000    0.2083333750000000    0.2000000000000000 B
   0.8125000000000000    0.3333333750000000    0.2000000000000000 B
   0.8125000000000000    0.4583333750000000    0.2000000000000000 B
   0.8125000000000000    0.5833333750000000    0.2000000000000000 B
   0.8125000000000000    0.7083333749999999    0.2000000000000000 B
   0.8125000000000000    0.8333333749999999    0.2000000000000000 B
   0.9375000000000000    0.9583333750000000    0.2000000000000000 B
   0.9375000000000000    0.0833333750000000    0.2000000000000000 B
   0.9375000000000000    0.2083333750000000    0.2000000000000000 B
   0.9375000000000000    0.3333333750000000    0.2000000000000000 B
   0.9375000000000000    0.4583333750000000    0.2000000000000000 B
   0.9375000000000000    0.5833333750000000    0.2000000000000000 B
   0.9375000000000000    0.7083333749999999    0.2000000000000000 B
   0.9375000000000000    0.8333333749999999    0.2000000000000000 B
   0.9687500000000000    0.9791666250000000    0.2000000000000000 N
   0.9687500000000000    0.1041666250000000    0.2000000000000000 N
   0.9687500000000000    0.2291666250000000    0.2000000000000000 N
   0.9687500000000000    0.3541666250000000    0.2000000000000000 N
   0.9687500000000000    0.4791666250000000    0.2000000000000000 N
   0.9687500000000000    0.6041666250000000    0.2000000000000000 N
   0.9687500000000000    0.7291666249999998    0.2000000000000000 N
   0.9687500000000000    0.8541666249999998    0.2000000000000000 N
   0.0937500000000000    0.9791666250000000    0.2000000000000000 N
   0.0937500000000000    0.1041666250000000    0.2000000000000000 N
   0.0937500000000000    0.2291666250000000    0.2000000000000000 N
   0.0937500000000000    0.3541666250000000    0.2000000000000000 N
   0.0937500000000000    0.4791666250000000    0.2000000000000000 N
   0.0937500000000000    0.6041666250000000    0.2000000000000000 N
   0.0937500000000000    0.7291666249999998    0.2000000000000000 N
   0.0937500000000000    0.8541666249999998    0.2000000000000000 N
   0.2187500000000000    0.9791666250000000    0.2000000000000000 N
   0.2187500000000000    0.1041666250000000    0.2000000000000000 N
   0.2187500000000000    0.2291666250000000    0.2000000000000000 N
   0.2187500000000000    0.3541666250000000    0.2000000000000000 N
   0.2187500000000000    0.4791666250000000    0.2000000000000000 N
   0.2187500000000000    0.6041666250000000    0.2000000000000000 N
   0.2187500000000000    0.7291666249999998    0.2000000000000000 N
   0.2187500000000000    0.8541666249999998    0.2000000000000000 N
   0.3437500000000000    0.9791666250000000    0.2000000000000000 N
   0.3437500000000000    0.1041666250000000    0.2000000000000000 N
   0.3437500000000000    0.2291666250000000    0.2000000000000000 N
   0.3437500000000000    0.3541666250000000    0.2000000000000000 N
   0.3437500000000000    0.4791666250000000    0.2000000000000000 N
   0.3437500000000000    0.6041666250000000    0.2000000000000000 N
   0.3437500000000000    0.7291666249999998    0.2000000000000000 N
   0.3437500000000000    0.8541666249999998    0.2000000000000000 N
   0.4687500000000000    0.9791666250000000    0.2000000000000000 N
   0.4687500000000000    0.1041666250000000    0.2000000000000000 N
   0.4687500000000000    0.2291666250000000    0.2000000000000000 N
   0.4687500000000000    0.3541666250000000    0.2000000000000000 N
   0.4687500000000000    0.4791666250000000    0.2000000000000000 N
   0.4687500000000000    0.6041666250000000    0.2000000000000000 N
   0.4687500000000000    0.7291666249999998    0.2000000000000000 N
   0.4687500000000000    0.8541666249999998    0.2000000000000000 N
   0.5937500000000000    0.9791666250000000    0.2000000000000000 N
   0.5937500000000000    0.1041666250000000    0.2000000000000000 N
   0.5937500000000000    0.2291666250000000    0.2000000000000000 N
   0.5937500000000000    0.3541666250000000    0.2000000000000000 N
   0.5937500000000000    0.4791666250000000    0.2000000000000000 N
   0.5937500000000000    0.6041666250000000    0.2000000000000000 N
   0.5937500000000000    0.7291666249999998    0.2000000000000000 N
   0.5937500000000000    0.8541666249999998    0.2000000000000000 N
   0.7187500000000000    0.9791666250000000    0.2000000000000000 N
   0.7187500000000000    0.1041666250000000    0.2000000000000000 N
   0.7187500000000000    0.2291666250000000    0.2000000000000000 N
   0.7187500000000000    0.3541666250000000    0.2000000000000000 N
   0.7187500000000000    0.4791666250000000    0.2000000000000000 N
   0.7187500000000000    0.6041666250000000    0.2000000000000000 N
   0.7187500000000000    0.7291666249999998    0.2000000000000000 N
   0.7187500000000000    0.8541666249999998    0.2000000000000000 N
   0.8437500000000001    0.9791666250000000    0.2000000000000000 N
   0.8437500000000001    0.1041666250000000    0.2000000000000000 N
   0.8437500000000001    0.2291666250000000    0.2000000000000000 N
   0.8437500000000001    0.3541666250000000    0.2000000000000000 N
   0.8437500000000001    0.4791666250000000    0.2000000000000000 N
   0.8437500000000001    0.6041666250000000    0.2000000000000000 N
   0.8437500000000001    0.7291666249999998    0.2000000000000000 N
   0.8437500000000001    0.8541666249999998    0.2000000000000000 N
   0.0312500000000000    0.9791666250000000    0.2000000000000000 N
   0.0312500000000000    0.1041666250000000    0.2000000000000000 N
   0.0312500000000000    0.2291666250000000    0.2000000000000000 N
   0.0312500000000000    0.3541666250000000    0.2000000000000000 N
   0.0312500000000000    0.4791666250000000    0.2000000000000000 N
   0.0312500000000000    0.6041666250000000    0.2000000000000000 N
   0.0312500000000000    0.7291666249999998    0.2000000000000000 N
   0.0312500000000000    0.8541666249999998    0.2000000000000000 N
   0.1562500000000000    0.9791666250000000    0.2000000000000000 N
   0.1562500000000000    0.1041666250000000    0.2000000000000000 N
   0.1562500000000000    0.2291666250000000    0.2000000000000000 N
   0.1562500000000000    0.3541666250000000    0.2000000000000000 N
   0.1562500000000000    0.4791666250000000    0.2000000000000000 N
   0.1562500000000000    0.6041666250000000    0.2000000000000000 N
   0.1562500000000000    0.7291666249999998    0.2000000000000000 N
   0.1562500000000000    0.8541666249999998    0.2000000000000000 N
   0.2812500000000000    0.9791666250000000    0.2000000000000000 N
   0.2812500000000000    0.1041666250000000    0.2000000000000000 N
   0.2812500000000000    0.2291666250000000    0.2000000000000000 N
   0.2812500000000000    0.3541666250000000    0.2000000000000000 N
   0.2812500000000000    0.4791666250000000    0.2000000000000000 N
   0.2812500000000000    0.6041666250000000    0.2000000000000000 N
   0.2812500000000000    0.7291666249999998    0.2000000000000000 N
   0.2812500000000000    0.8541666249999998    0.2000000000000000 N
   0.4062500000000000    0.9791666250000000    0.2000000000000000 N
   0.4062500000000000    0.1041666250000000    0.2000000000000000 N
   0.4062500000000000    0.2291666250000000    0.2000000000000000 N
   0.4062500000000000    0.3541666250000000    0.2000000000000000 N
   0.4062500000000000    0.4791666250000000    0.2000000000000000 N
   0.4062500000000000    0.6041666250000000    0.2000000000000000 N
   0.4062500000000000    0.7291666249999998    0.2000000000000000 N
   0.4062500000000000    0.8541666249999998    0.2000000000000000 N
   0.5312500000000000    0.9791666250000000    0.2000000000000000 N
   0.5312500000000000    0.1041666250000000    0.2000000000000000 N
   0.5312500000000000    0.2291666250000000    0.2000000000000000 N
   0.5312500000000000    0.3541666250000000    0.2000000000000000 N
   0.5312500000000000    0.4791666250000000    0.2000000000000000 N
   0.5312500000000000    0.6041666250000000    0.2000000000000000 N
   0.5312500000000000    0.7291666249999998    0.2000000000000000 N
   0.5312500000000000    0.8541666249999998    0.2000000000000000 N
   0.6562500000000001    0.9791666250000000    0.2000000000000000 N
   0.6562500000000001    0.1041666250000000    0.2000000000000000 N
   0.6562500000000001    0.2291666250000000    0.2000000000000000 N
   0.6562500000000001    0.3541666250000000    0.2000000000000000 N
   0.6562500000000001    0.4791666250000000    0.2000000000000000 N
   0.6562500000000001    0.6041666250000000    0.2000000000000000 N
   0.6562500000000001    0.7291666249999998    0.2000000000000000 N
   0.6562500000000001    0.8541666249999998    0.2000000000000000 N
   0.7812500000000000    0.9791666250000000    0.2000000000000000 N
   0.7812500000000000    0.1041666250000000    0.2000000000000000 N
   0.7812500000000000    0.2291666250000000    0.2000000000000000 N
   0.7812500000000000    0.3541666250000000    0.2000000000000000 N
   0.7812500000000000    0.4791666250000000    0.2000000000000000 N
   0.7812500000000000    0.6041666250000000    0.2000000000000000 N
   0.7812500000000000    0.7291666249999998    0.2000000000000000 N
   0.7812500000000000    0.8541666249999998    0.2000000000000000 N
   0.9062500000000000    0.9791666250000000    0.2000000000000000 N
   0.9062500000000000    0.1041666250000000    0.2000000000000000 N
   0.9062500000000000    0.2291666250000000    0.2000000000000000 N
   0.9062500000000000    0.3541666250000000    0.2000000000000000 N
   0.9062500000000000    0.4791666250000000    0.2000000000000000 N
   0.9062500000000000    0.6041666250000000    0.2000000000000000 N
   0.9062500000000000    0.7291666249999998    0.2000000000000000 N
   0.9062500000000000    0.8541666249999998    0.2000000000000000 N
   0.0000000000000000    0.0416666250000000    0.2000000000000000 N
   0.0000000000000000    0.1666666250000000    0.2000000000000000 N
   0.0000000000000000    0.2916666250000000    0.2000000000000000 N
   0.0000000000000000    0.4166666250000000    0.2000000000000000 N
   0.0000000000000000    0.5416666250000000    0.2000000000000000 N
   0.0000000000000000    0.6666666250000000    0.2000000000000000 N
   0.0000000000000000    0.7916666249999998    0.2000000000000000 N
   0.0000000000000000    0.9166666250000000    0.2000000000000000 N
   0.1250000000000000    0.0416666250000000    0.2000000000000000 N
   0.1250000000000000    0.1666666250000000    0.2000000000000000 N
   0.1250000000000000    0.2916666250000000    0.2000000000000000 N
   0.1250000000000000    0.4166666250000000    0.2000000000000000 N
   0.1250000000000000    0.5416666250000000    0.2000000000000000 N
   0.1250000000000000    0.6666666250000000    0.2000000000000000 N
   0.1250000000000000    0.7916666249999998    0.2000000000000000 N
   0.1250000000000000    0.9166666250000000    0.2000000000000000 N
   0.2500000000000000    0.0416666250000000    0.2000000000000000 N
   0.2500000000000000    0.1666666250000000    0.2000000000000000 N
   0.2500000000000000    0.2916666250000000    0.2000000000000000 N
   0.2500000000000000    0.4166666250000000    0.2000000000000000 N
   0.2500000000000000    0.5416666250000000    0.2000000000000000 N
   0.2500000000000000    0.6666666250000000    0.2000000000000000 N
   0.2500000000000000    0.7916666249999998    0.2000000000000000 N
   0.2500000000000000    0.9166666250000000    0.2000000000000000 N
   0.3750000000000000    0.0416666250000000    0.2000000000000000 N
   0.3750000000000000    0.1666666250000000    0.2000000000000000 N
   0.3750000000000000    0.2916666250000000    0.2000000000000000 N
   0.3750000000000000    0.4166666250000000    0.2000000000000000 N
   0.3750000000000000    0.5416666250000000    0.2000000000000000 N
   0.3750000000000000    0.6666666250000000    0.2000000000000000 N
   0.3750000000000000    0.7916666249999998    0.2000000000000000 N
   0.3750000000000000    0.9166666250000000    0.2000000000000000 N
   0.5000000000000000    0.0416666250000000    0.2000000000000000 N
   0.5000000000000000    0.1666666250000000    0.2000000000000000 N
   0.5000000000000000    0.2916666250000000    0.2000000000000000 N
   0.5000000000000000    0.4166666250000000    0.2000000000000000 N
   0.5000000000000000    0.5416666250000000    0.2000000000000000 N
   0.5000000000000000    0.6666666250000000    0.2000000000000000 N
   0.5000000000000000    0.7916666249999998    0.2000000000000000 N
   0.5000000000000000    0.9166666250000000    0.2000000000000000 N
   0.6250000000000001    0.0416666250000000    0.2000000000000000 N
   0.6250000000000001    0.1666666250000000    0.2000000000000000 N
   0.6250000000000001    0.2916666250000000    0.2000000000000000 N
   0.6250000000000001    0.4166666250000000    0.2000000000000000 N
   0.6250000000000001    0.5416666250000000    0.2000000000000000 N
   0.6250000000000001    0.6666666250000000    0.2000000000000000 N
   0.6250000000000001    0.7916666249999998    0.2000000000000000 N
   0.6250000000000001    0.9166666250000000    0.2000000000000000 N
   0.7500000000000000    0.0416666250000000    0.2000000000000000 N
   0.7500000000000000    0.1666666250000000    0.2000000000000000 N
   0.7500000000000000    0.2916666250000000    0.2000000000000000 N
   0.7500000000000000    0.4166666250000000    0.2000000000000000 N
   0.7500000000000000    0.5416666250000000    0.2000000000000000 N