B36 H18 N36 O9
1.0
15.027270 0.000000 0.000000
0.000000 13.014000 0.000000
0.000000 0.000000 30.000000
B N O H
36 36 9 18
direct
0.916667 0.055556 0.200000 B
0.916667 0.388889 0.200000 B
0.916667 0.722222 0.200000 B
0.250000 0.055556 0.200000 B
0.250000 0.388889 0.200000 B
0.250000 0.722222 0.200000 B
0.583333 0.055556 0.200000 B
0.583333 0.388889 0.200000 B
0.583333 0.722222 0.200000 B
0.083333 0.055556 0.200000 B
0.083333 0.388889 0.200000 B
0.083333 0.722222 0.200000 B
0.416667 0.055556 0.200000 B
0.416667 0.388889 0.200000 B
0.416667 0.722222 0.200000 B
0.750000 0.055556 0.200000 B
0.750000 0.388889 0.200000 B
0.750000 0.722222 0.200000 B
0.000000 0.888889 0.200000 B
0.000000 0.222222 0.200000 B
0.000000 0.555556 0.200000 B
0.333333 0.888889 0.200000 B
0.333333 0.222222 0.200000 B
0.333333 0.555556 0.200000 B
0.666667 0.888889 0.200000 B
0.666667 0.222222 0.200000 B
0.666667 0.555556 0.200000 B
0.166667 0.888889 0.200000 B
0.166667 0.222222 0.200000 B
0.166667 0.555556 0.200000 B
0.500000 0.888889 0.200000 B
0.500000 0.222222 0.200000 B
0.500000 0.555556 0.200000 B
0.833333 0.888889 0.200000 B
0.833333 0.222222 0.200000 B
0.833333 0.555556 0.200000 B
0.916667 0.944444 0.200000 N
0.916667 0.277778 0.200000 N
0.916667 0.611111 0.200000 N
0.250000 0.944444 0.200000 N
0.250000 0.277778 0.200000 N
0.250000 0.611111 0.200000 N
0.583333 0.944444 0.200000 N
0.583333 0.277778 0.200000 N
0.583333 0.611111 0.200000 N
0.083333 0.944444 0.200000 N
0.083333 0.277778 0.200000 N
0.083333 0.611111 0.200000 N
0.416667 0.944444 0.200000 N
0.416667 0.277778 0.200000 N
0.416667 0.611111 0.200000 N
0.750000 0.944444 0.200000 N
0.750000 0.277778 0.200000 N
0.750000 0.611111 0.200000 N
0.000000 0.111111 0.200000 N
0.000000 0.444444 0.200000 N
0.000000 0.777778 0.200000 N
0.333333 0.111111 0.200000 N
0.333333 0.444444 0.200000 N
0.333333 0.777778 0.200000 N
0.666667 0.111111 0.200000 N
0.666667 0.444444 0.200000 N
0.666667 0.777778 0.200000 N
0.166667 0.111111 0.200000 N
0.166667 0.444444 0.200000 N
0.166667 0.777778 0.200000 N
0.500000 0.111111 0.200000 N
0.500000 0.444444 0.200000 N
0.500000 0.777778 0.200000 N
0.833333 0.111111 0.200000 N
0.833333 0.444444 0.200000 N
0.833333 0.777778 0.200000 N
0.000000 0.000000 0.313333 O
0.000000 0.333333 0.313333 O
0.000000 0.666667 0.313333 O
0.333333 0.000000 0.313333 O
0.333333 0.333333 0.313333 O
0.333333 0.666667 0.313333 O
0.666667 0.000000 0.313333 O
0.666667 0.333333 0.313333 O
0.666667 0.666667 0.313333 O
0.000000 0.058164 0.293804 H
0.000000 0.391498 0.293804 H
0.000000 0.724831 0.293804 H
0.333333 0.058164 0.293804 H
0.333333 0.391498 0.293804 H
0.333333 0.724831 0.293804 H
0.666667 0.058164 0.293804 H
0.666667 0.391498 0.293804 H
0.666667 0.724831 0.293804 H
0.000000 0.941836 0.293804 H
0.000000 0.275169 0.293804 H
0.000000 0.608502 0.293804 H
0.333333 0.941836 0.293804 H
0.333333 0.275169 0.293804 H
0.333333 0.608502 0.293804 H
0.666667 0.941836 0.293804 H
0.666667 0.275169 0.293804 H
0.666667 0.608502 0.293804 H
