hBN_water_Oleft_Hright_primitive_cell
1.00000
5.00909 0.00000 0.00000
0.00000 4.33800 0.00000
0.00000 0.00000 30.00000
B N O H
4 4 1 2
Cartesian
-1.252272500 0.723001446 6.000000000
1.252272500 0.723001446 6.000000000
0.000000000 -1.445998554 6.000000000
2.504545000 -1.445998554 6.000000000
-1.252272500 -0.723001446 6.000000000
1.252272500 -0.723001446 6.000000000
0.000000000 1.445998554 6.000000000
2.504545000 1.445998554 6.000000000
0.340000000 1.575998554 9.400000000
-0.440000000 1.305998554 9.920000000
0.070000000 1.475998554 8.470000000
