B196 H98 N196 O49
1.0
  35.0636299999999963    0.0000000000000000    0.0000000000000000
   0.0000000000000000   30.3659999999999997    0.0000000000000000
   0.0000000000000000    0.0000000000000000   30.0000000000000000
B N O H
196 196 49 98
direct
   0.9642857142857143    0.0238095714285714    0.2000000000000000 B
   0.9642857142857143    0.1666667142857143    0.2000000000000000 B
   0.9642857142857143    0.3095238571428571    0.2000000000000000 B
   0.9642857142857143    0.4523810000000000    0.2000000000000000 B
   0.9642857142857143    0.5952381428571429    0.2000000000000000 B
   0.9642857142857143    0.7380952857142857    0.2000000000000000 B
   0.9642857142857143    0.8809524285714286    0.2000000000000000 B
   0.1071428571428571    0.0238095714285714    0.2000000000000000 B
   0.1071428571428571    0.1666667142857143    0.2000000000000000 B
   0.1071428571428571    0.3095238571428571    0.2000000000000000 B
   0.1071428571428571    0.4523810000000000    0.2000000000000000 B
   0.1071428571428571    0.5952381428571429    0.2000000000000000 B
   0.1071428571428571    0.7380952857142857    0.2000000000000000 B
   0.1071428571428571    0.8809524285714286    0.2000000000000000 B
   0.2500000000000000    0.0238095714285714    0.2000000000000000 B
   0.2500000000000000    0.1666667142857143    0.2000000000000000 B
   0.2500000000000000    0.3095238571428571    0.2000000000000000 B
   0.2500000000000000    0.4523810000000000    0.2000000000000000 B
   0.2500000000000000    0.5952381428571429    0.2000000000000000 B
   0.2500000000000000    0.7380952857142857    0.2000000000000000 B
   0.2500000000000000    0.8809524285714286    0.2000000000000000 B
   0.3928571428571428    0.0238095714285714    0.2000000000000000 B
   0.3928571428571428    0.1666667142857143    0.2000000000000000 B
   0.3928571428571428    0.3095238571428571    0.2000000000000000 B
   0.3928571428571428    0.4523810000000000    0.2000000000000000 B
   0.3928571428571428    0.5952381428571429    0.2000000000000000 B
   0.3928571428571428    0.7380952857142857    0.2000000000000000 B
   0.3928571428571428    0.8809524285714286    0.2000000000000000 B
   0.5357142857142857    0.0238095714285714    0.2000000000000000 B
   0.5357142857142857    0.1666667142857143    0.2000000000000000 B
   0.5357142857142857    0.3095238571428571    0.2000000000000000 B
   0.5357142857142857    0.4523810000000000    0.2000000000000000 B
   0.5357142857142857    0.5952381428571429    0.2000000000000000 B
   0.5357142857142857    0.7380952857142857    0.2000000000000000 B
   0.5357142857142857    0.8809524285714286    0.2000000000000000 B
   0.6785714285714285    0.0238095714285714    0.2000000000000000 B
   0.6785714285714285    0.1666667142857143    0.2000000000000000 B
   0.6785714285714285    0.3095238571428571    0.2000000000000000 B
   0.6785714285714285    0.4523810000000000    0.2000000000000000 B
   0.6785714285714285    0.5952381428571429    0.2000000000000000 B
   0.6785714285714285    0.7380952857142857    0.2000000000000000 B
   0.6785714285714285    0.8809524285714286    0.2000000000000000 B
   0.8214285714285714    0.0238095714285714    0.2000000000000000 B
   0.8214285714285714    0.1666667142857143    0.2000000000000000 B
   0.8214285714285714    0.3095238571428571    0.2000000000000000 B
   0.8214285714285714    0.4523810000000000    0.2000000000000000 B
   0.8214285714285714    0.5952381428571429    0.2000000000000000 B
   0.8214285714285714    0.7380952857142857    0.2000000000000000 B
   0.8214285714285714    0.8809524285714286    0.2000000000000000 B
   0.0357142857142857    0.0238095714285714    0.2000000000000000 B
   0.0357142857142857    0.1666667142857143    0.2000000000000000 B
   0.0357142857142857    0.3095238571428571    0.2000000000000000 B
   0.0357142857142857    0.4523810000000000    0.2000000000000000 B
   0.0357142857142857    0.5952381428571429    0.2000000000000000 B
   0.0357142857142857    0.7380952857142857    0.2000000000000000 B
   0.0357142857142857    0.8809524285714286    0.2000000000000000 B
   0.1785714285714286    0.0238095714285714    0.2000000000000000 B
   0.1785714285714286    0.1666667142857143    0.2000000000000000 B
   0.1785714285714286    0.3095238571428571    0.2000000000000000 B
   0.1785714285714286    0.4523810000000000    0.2000000000000000 B
   0.1785714285714286    0.5952381428571429    0.2000000000000000 B
   0.1785714285714286    0.7380952857142857    0.2000000000000000 B
   0.1785714285714286    0.8809524285714286    0.2000000000000000 B
   0.3214285714285715    0.0238095714285714    0.2000000000000000 B
   0.3214285714285715    0.1666667142857143    0.2000000000000000 B
   0.3214285714285715    0.3095238571428571    0.2000000000000000 B
   0.3214285714285715    0.4523810000000000    0.2000000000000000 B
   0.3214285714285715    0.5952381428571429    0.2000000000000000 B
   0.3214285714285715    0.7380952857142857    0.2000000000000000 B
   0.3214285714285715    0.8809524285714286    0.2000000000000000 B
   0.4642857142857143    0.0238095714285714    0.2000000000000000 B
   0.4642857142857143    0.1666667142857143    0.2000000000000000 B
   0.4642857142857143    0.3095238571428571    0.2000000000000000 B
   0.4642857142857143    0.4523810000000000    0.2000000000000000 B
   0.4642857142857143    0.5952381428571429    0.2000000000000000 B
   0.4642857142857143    0.7380952857142857    0.2000000000000000 B
   0.4642857142857143    0.8809524285714286    0.2000000000000000 B
   0.6071428571428572    0.0238095714285714    0.2000000000000000 B
   0.6071428571428572    0.1666667142857143    0.2000000000000000 B
   0.6071428571428572    0.3095238571428571    0.2000000000000000 B
   0.6071428571428572    0.4523810000000000    0.2000000000000000 B
   0.6071428571428572    0.5952381428571429    0.2000000000000000 B
   0.6071428571428572    0.7380952857142857    0.2000000000000000 B
   0.6071428571428572    0.8809524285714286    0.2000000000000000 B
   0.7500000000000000    0.0238095714285714    0.2000000000000000 B
   0.7500000000000000    0.1666667142857143    0.2000000000000000 B
   0.7500000000000000    0.3095238571428571    0.2000000000000000 B
   0.7500000000000000    0.4523810000000000    0.2000000000000000 B
   0.7500000000000000    0.5952381428571429    0.2000000000000000 B
   0.7500000000000000    0.7380952857142857    0.2000000000000000 B
   0.7500000000000000    0.8809524285714286    0.2000000000000000 B
   0.8928571428571428    0.0238095714285714    0.2000000000000000 B
   0.8928571428571428    0.1666667142857143    0.2000000000000000 B
   0.8928571428571428    0.3095238571428571    0.2000000000000000 B
   0.8928571428571428    0.4523810000000000    0.2000000000000000 B
   0.8928571428571428    0.5952381428571429    0.2000000000000000 B
   0.8928571428571428    0.7380952857142857    0.2000000000000000 B
   0.8928571428571428    0.8809524285714286    0.2000000000000000 B
   0.0000000000000000    0.9523810000000000    0.2000000000000000 B
   0.0000000000000000    0.0952381428571429    0.2000000000000000 B
   0.0000000000000000    0.2380952857142857    0.2000000000000000 B
   0.0000000000000000    0.3809524285714286    0.2000000000000000 B
   0.0000000000000000    0.5238095714285714    0.2000000000000000 B
   0.0000000000000000    0.6666667142857142    0.2000000000000000 B
   0.0000000000000000    0.8095238571428571    0.2000000000000000 B
   0.1428571428571428    0.9523810000000000    0.2000000000000000 B
   0.1428571428571428    0.0952381428571429    0.2000000000000000 B
   0.1428571428571428    0.2380952857142857    0.2000000000000000 B
   0.1428571428571428    0.3809524285714286    0.2000000000000000 B
   0.1428571428571428    0.5238095714285714    0.2000000000000000 B
   0.1428571428571428    0.6666667142857142    0.2000000000000000 B
   0.1428571428571428    0.8095238571428571    0.2000000000000000 B
   0.2857142857142857    0.9523810000000000    0.2000000000000000 B
   0.2857142857142857    0.0952381428571429    0.2000000000000000 B
   0.2857142857142857    0.2380952857142857    0.2000000000000000 B
   0.2857142857142857    0.3809524285714286    0.2000000000000000 B
   0.2857142857142857    0.5238095714285714    0.2000000000000000 B
   0.2857142857142857    0.6666667142857142    0.2000000000000000 B
   0.2857142857142857    0.8095238571428571    0.2000000000000000 B
   0.4285714285714285    0.9523810000000000    0.2000000000000000 B
   0.4285714285714285    0.0952381428571429    0.2000000000000000 B
   0.4285714285714285    0.2380952857142857    0.2000000000000000 B
   0.4285714285714285    0.3809524285714286    0.2000000000000000 B
   0.4285714285714285    0.5238095714285714    0.2000000000000000 B
   0.4285714285714285    0.6666667142857142    0.2000000000000000 B
   0.4285714285714285    0.8095238571428571    0.2000000000000000 B
   0.5714285714285714    0.9523810000000000    0.2000000000000000 B
   0.5714285714285714    0.0952381428571429    0.2000000000000000 B
   0.5714285714285714    0.2380952857142857    0.2000000000000000 B
   0.5714285714285714    0.3809524285714286    0.2000000000000000 B
   0.5714285714285714    0.5238095714285714    0.2000000000000000 B
   0.5714285714285714    0.6666667142857142    0.2000000000000000 B
   0.5714285714285714    0.8095238571428571    0.2000000000000000 B
   0.7142857142857142    0.9523810000000000    0.2000000000000000 B
   0.7142857142857142    0.0952381428571429    0.2000000000000000 B
   0.7142857142857142    0.2380952857142857    0.2000000000000000 B
   0.7142857142857142    0.3809524285714286    0.2000000000000000 B
   0.7142857142857142    0.5238095714285714    0.2000000000000000 B
   0.7142857142857142    0.6666667142857142    0.2000000000000000 B
   0.7142857142857142    0.8095238571428571    0.2000000000000000 B
   0.8571428571428571    0.9523810000000000    0.2000000000000000 B
   0.8571428571428571    0.0952381428571429    0.2000000000000000 B
   0.8571428571428571    0.2380952857142857    0.2000000000000000 B
   0.8571428571428571    0.3809524285714286    0.2000000000000000 B
   0.8571428571428571    0.5238095714285714    0.2000000000000000 B
   0.8571428571428571    0.6666667142857142    0.2000000000000000 B
   0.8571428571428571    0.8095238571428571    0.2000000000000000 B
   0.0714285714285714    0.9523810000000000    0.2000000000000000 B
   0.0714285714285714    0.0952381428571429    0.2000000000000000 B
   0.0714285714285714    0.2380952857142857    0.2000000000000000 B
   0.0714285714285714    0.3809524285714286    0.2000000000000000 B
   0.0714285714285714    0.5238095714285714    0.2000000000000000 B
   0.0714285714285714    0.6666667142857142    0.2000000000000000 B
   0.0714285714285714    0.8095238571428571    0.2000000000000000 B
   0.2142857142857143    0.9523810000000000    0.2000000000000000 B
   0.2142857142857143    0.0952381428571429    0.2000000000000000 B
   0.2142857142857143    0.2380952857142857    0.2000000000000000 B
   0.2142857142857143    0.3809524285714286    0.2000000000000000 B
   0.2142857142857143    0.5238095714285714    0.2000000000000000 B
   0.2142857142857143    0.6666667142857142    0.2000000000000000 B
   0.2142857142857143    0.8095238571428571    0.2000000000000000 B
   0.3571428571428572    0.9523810000000000    0.2000000000000000 B
   0.3571428571428572    0.0952381428571429    0.2000000000000000 B
   0.3571428571428572    0.2380952857142857    0.2000000000000000 B
   0.3571428571428572    0.3809524285714286    0.2000000000000000 B
   0.3571428571428572    0.5238095714285714    0.2000000000000000 B
   0.3571428571428572    0.6666667142857142    0.2000000000000000 B
   0.3571428571428572    0.8095238571428571    0.2000000000000000 B
   0.5000000000000000    0.9523810000000000    0.2000000000000000 B
   0.5000000000000000    0.0952381428571429    0.2000000000000000 B
   0.5000000000000000    0.2380952857142857    0.2000000000000000 B
   0.5000000000000000    0.3809524285714286    0.2000000000000000 B
   0.5000000000000000    0.5238095714285714    0.2000000000000000 B
   0.5000000000000000    0.6666667142857142    0.2000000000000000 B
   0.5000000000000000    0.8095238571428571    0.2000000000000000 B
   0.6428571428571429    0.9523810000000000    0.2000000000000000 B
   0.6428571428571429    0.0952381428571429    0.2000000000000000 B
   0.6428571428571429    0.2380952857142857    0.2000000000000000 B
   0.6428571428571429    0.3809524285714286    0.2000000000000000 B
   0.6428571428571429    0.5238095714285714    0.2000000000000000 B
   0.6428571428571429    0.6666667142857142    0.2000000000000000 B
   0.6428571428571429    0.8095238571428571    0.2000000000000000 B
   0.7857142857142857    0.9523810000000000    0.2000000000000000 B
   0.7857142857142857    0.0952381428571429    0.2000000000000000 B
   0.7857142857142857    0.2380952857142857    0.2000000000000000 B
   0.7857142857142857    0.3809524285714286    0.2000000000000000 B
   0.7857142857142857    0.5238095714285714    0.2000000000000000 B
   0.7857142857142857    0.6666667142857142    0.2000000000000000 B
   0.7857142857142857    0.8095238571428571    0.2000000000000000 B
   0.9285714285714286    0.9523810000000000    0.2000000000000000 B
   0.9285714285714286    0.0952381428571429    0.2000000000000000 B
   0.9285714285714286    0.2380952857142857    0.2000000000000000 B
   0.9285714285714286    0.3809524285714286    0.2000000000000000 B
   0.9285714285714286    0.5238095714285714    0.2000000000000000 B
   0.9285714285714286    0.6666667142857142    0.2000000000000000 B
   0.9285714285714286    0.8095238571428571    0.2000000000000000 B
   0.9642857142857143    0.9761904285714286    0.2000000000000000 N
   0.9642857142857143    0.1190475714285714    0.2000000000000000 N
   0.9642857142857143    0.2619047142857143    0.2000000000000000 N
   0.9642857142857143    0.4047618571428572    0.2000000000000000 N
   0.9642857142857143    0.5476190000000000    0.2000000000000000 N
   0.9642857142857143    0.6904761428571428    0.2000000000000000 N
   0.9642857142857143    0.8333332857142857    0.2000000000000000 N
   0.1071428571428571    0.9761904285714286    0.2000000000000000 N
   0.1071428571428571    0.1190475714285714    0.2000000000000000 N
   0.1071428571428571    0.2619047142857143    0.2000000000000000 N
   0.1071428571428571    0.4047618571428572    0.2000000000000000 N
   0.1071428571428571    0.5476190000000000    0.2000000000000000 N
   0.1071428571428571    0.6904761428571428    0.2000000000000000 N
   0.1071428571428571    0.8333332857142857    0.2000000000000000 N
   0.2500000000000000    0.9761904285714286    0.2000000000000000 N
   0.2500000000000000    0.1190475714285714    0.2000000000000000 N
   0.2500000000000000    0.2619047142857143    0.2000000000000000 N
   0.2500000000000000    0.4047618571428572    0.2000000000000000 N
   0.2500000000000000    0.5476190000000000    0.2000000000000000 N
   0.2500000000000000    0.6904761428571428    0.2000000000000000 N
   0.2500000000000000    0.8333332857142857    0.2000000000000000 N
   0.3928571428571428    0.9761904285714286    0.2000000000000000 N
   0.3928571428571428    0.1190475714285714    0.2000000000000000 N
   0.3928571428571428    0.2619047142857143    0.2000000000000000 N
   0.3928571428571428    0.4047618571428572    0.2000000000000000 N
   0.3928571428571428    0.5476190000000000    0.2000000000000000 N
   0.3928571428571428    0.6904761428571428    0.2000000000000000 N
   0.3928571428571428    0.8333332857142857    0.2000000000000000 N
   0.5357142857142857    0.9761904285714286    0.2000000000000000 N
   0.5357142857142857    0.1190475714285714    0.2000000000000000 N
   0.5357142857142857    0.2619047142857143    0.2000000000000000 N
   0.5357142857142857    0.4047618571428572    0.2000000000000000 N
   0.5357142857142857    0.5476190000000000    0.2000000000000000 N
   0.5357142857142857    0.6904761428571428    0.2000000000000000 N
   0.5357142857142857    0.8333332857142857    0.2000000000000000 N
   0.6785714285714285    0.9761904285714286    0.2000000000000000 N
   0.6785714285714285    0.1190475714285714    0.2000000000000000 N
   0.6785714285714285    0.2619047142857143    0.2000000000000000 N
   0.6785714285714285    0.4047618571428572    0.2000000000000000 N
   0.6785714285714285    0.5476190000000000    0.2000000000000000 N
   0.6785714285714285    0.6904761428571428    0.2000000000000000 N
   0.6785714285714285    0.8333332857142857    0.2000000000000000 N
   0.8214285714285714    0.9761904285714286    0.2000000000000000 N
   0.8214285714285714    0.1190475714285714    0.2000000000000000 N
   0.8214285714285714    0.2619047142857143    0.2000000000000000 N
   0.8214285714285714    0.4047618571428572    0.2000000000000000 N
   0.8214285714285714    0.5476190000000000    0.2000000000000000 N
   0.8214285714285714    0.6904761428571428    0.2000000000000000 N
   0.8214285714285714    0.8333332857142857    0.2000000000000000 N
   0.0357142857142857    0.9761904285714286    0.2000000000000000 N
   0.0357142857142857    0.1190475714285714    0.2000000000000000 N
   0.0357142857142857    0.2619047142857143    0.2000000000000000 N
   0.0357142857142857    0.4047618571428572    0.2000000000000000 N
   0.0357142857142857    0.5476190000000000    0.2000000000000000 N
   0.0357142857142857    0.6904761428571428    0.2000000000000000 N
   0.0357142857142857    0.8333332857142857    0.2000000000000000 N
   0.1785714285714286    0.9761904285714286    0.2000000000000000 N
   0.1785714285714286    0.1190475714285714    0.2000000000000000 N
   0.1785714285714286    0.2619047142857143    0.2000000000000000 N
   0.1785714285714286    0.4047618571428572    0.2000000000000000 N
   0.1785714285714286    0.5476190000000000    0.2000000000000000 N
   0.1785714285714286    0.6904761428571428    0.2000000000000000 N
   0.1785714285714286    0.8333332857142857    0.2000000000000000 N
   0.3214285714285715    0.9761904285714286    0.2000000000000000 N
   0.3214285714285715    0.1190475714285714    0.2000000000000000 N
   0.3214285714285715    0.2619047142857143    0.2000000000000000 N
   0.3214285714285715    0.4047618571428572    0.2000000000000000 N
   0.3214285714285715    0.5476190000000000    0.2000000000000000 N
   0.3214285714285715    0.6904761428571428    0.2000000000000000 N
   0.3214285714285715    0.8333332857142857    0.2000000000000000 N
   0.4642857142857143    0.9761904285714286    0.2000000000000000 N
   0.4642857142857143    0.1190475714285714    0.2000000000000000 N
   0.4642857142857143    0.2619047142857143    0.2000000000000000 N
   0.4642857142857143    0.4047618571428572    0.2000000000000000 N
   0.4642857142857143    0.5476190000000000    0.2000000000000000 N
   0.4642857142857143    0.6904761428571428    0.2000000000000000 N
   0.4642857142857143    0.8333332857142857    0.2000000000000000 N
   0.6071428571428572    0.9761904285714286    0.2000000000000000 N
   0.6071428571428572    0.1190475714285714    0.2000000000000000 N
   0.6071428571428572    0.2619047142857143    0.2000000000000000 N
   0.6071428571428572    0.4047618571428572    0.2000000000000000 N
   0.6071428571428572    0.5476190000000000    0.2000000000000000 N
   0.6071428571428572    0.6904761428571428    0.2000000000000000 N
   0.6071428571428572    0.8333332857142857    0.2000000000000000 N
   0.7500000000000000    0.9761904285714286    0.2000000000000000 N
   0.7500000000000000    0.1190475714285714    0.2000000000000000 N
   0.7500000000000000    0.2619047142857143    0.2000000000000000 N
   0.7500000000000000    0.4047618571428572    0.2000000000000000 N
   0.7500000000000000    0.5476190000000000    0.2000000000000000 N
   0.7500000000000000    0.6904761428571428    0.2000000000000000 N
   0.7500000000000000    0.8333332857142857    0.2000000000000000 N
   0.8928571428571428    0.9761904285714286    0.2000000000000000 N
   0.8928571428571428    0.1190475714285714    0.2000000000000000 N
   0.8928571428571428    0.2619047142857143    0.2000000000000000 N
   0.8928571428571428    0.4047618571428572    0.2000000000000000 N
   0.8928571428571428    0.5476190000000000    0.2000000000000000 N
   0.8928571428571428    0.6904761428571428    0.2000000000000000 N
   0.8928571428571428    0.8333332857142857    0.2000000000000000 N
   0.0000000000000000    0.0476190000000000    0.2000000000000000 N
   0.0000000000000000    0.1904761428571429    0.2000000000000000 N
   0.0000000000000000    0.3333332857142858    0.2000000000000000 N
   0.0000000000000000    0.4761904285714285    0.2000000000000000 N
   0.0000000000000000    0.6190475714285715    0.2000000000000000 N
   0.0000000000000000    0.7619047142857142    0.2000000000000000 N
   0.0000000000000000    0.9047618571428571    0.2000000000000000 N
   0.1428571428571428    0.0476190000000000    0.2000000000000000 N
   0.1428571428571428    0.1904761428571429    0.2000000000000000 N
   0.1428571428571428    0.3333332857142858    0.2000000000000000 N
   0.1428571428571428    0.4761904285714285    0.2000000000000000 N
   0.1428571428571428    0.6190475714285715    0.2000000000000000 N
   0.1428571428571428    0.7619047142857142    0.2000000000000000 N
   0.1428571428571428    0.9047618571428571    0.2000000000000000 N
   0.2857142857142857    0.0476190000000000    0.2000000000000000 N
   0.2857142857142857    0.1904761428571429    0.2000000000000000 N
   0.2857142857142857    0.3333332857142858    0.2000000000000000 N
   0.2857142857142857    0.4761904285714285    0.2000000000000000 N
   0.2857142857142857    0.6190475714285715    0.2000000000000000 N
   0.2857142857142857    0.7619047142857142    0.2000000000000000 N
   0.2857142857142857    0.9047618571428571    0.2000000000000000 N
   0.4285714285714285    0.0476190000000000    0.2000000000000000 N
   0.4285714285714285    0.1904761428571429    0.2000000000000000 N
   0.4285714285714285    0.3333332857142858    0.2000000000000000 N
   0.4285714285714285    0.4761904285714285    0.2000000000000000 N
   0.4285714285714285    0.6190475714285715    0.2000000000000000 N
   0.4285714285714285    0.7619047142857142    0.2000000000000000 N
   0.4285714285714285    0.9047618571428571    0.2000000000000000 N
   0.5714285714285714    0.0476190000000000    0.2000000000000000 N
   0.5714285714285714    0.1904761428571429    0.2000000000000000 N
   0.5714285714285714    0.3333332857142858    0.2000000000000000 N
   0.5714285714285714    0.4761904285714285    0.2000000000000000 N
   0.5714285714285714    0.6190475714285715    0.2000000000000000 N
   0.5714285714285714    0.7619047142857142    0.2000000000000000 N
   0.5714285714285714    0.9047618571428571    0.2000000000000000 N
   0.7142857142857142    0.0476190000000000    0.2000000000000000 N
   0.7142857142857142    0.1904761428571429    0.2000000000000000 N
   0.7142857142857142    0.3333332857142858    0.2000000000000000 N
   0.7142857142857142    0.4761904285714285    0.2000000000000000 N
   0.7142857142857142    0.6190475714285715    0.2000000000000000 N
   0.7142857142857142    0.7619047142857142    0.2000000000000000 N
   0.7142857142857142    0.9047618571428571    0.2000000000000000 N
   0.8571428571428571    0.0476190000000000    0.2000000000000000 N
   0.8571428571428571    0.1904761428571429    0.2000000000000000 N
   0.8571428571428571    0.3333332857142858    0.2000000000000000 N
   0.8571428571428571    0.4761904285714285    0.2000000000000000 N
   0.8571428571428571    0.6190475714285715    0.2000000000000000 N
   0.8571428571428571    0.7619047142857142    0.2000000000000000 N
   0.8571428571428571    0.9047618571428571    0.2000000000000000 N
   0.0714285714285714    0.0476190000000000    0.2000000000000000 N
   0.0714285714285714    0.1904761428571429    0.2000000000000000 N
   0.0714285714285714    0.3333332857142858    0.2000000000000000 N
   0.0714285714285714    0.4761904285714285    0.2000000000000000 N
   0.0714285714285714    0.6190475714285715    0.2000000000000000 N
   0.0714285714285714    0.7619047142857142    0.2000000000000000 N
   0.0714285714285714    0.9047618571428571    0.2000000000000000 N
   0.2142857142857143    0.0476190000000000    0.2000000000000000 N
   0.2142857142857143    0.1904761428571429    0.2000000000000000 N
   0.2142857142857143    0.3333332857142858    0.2000000000000000 N
   0.2142857142857143    0.4761904285714285    0.2000000000000000 N
   0.2142857142857143    0.6190475714285715    0.2000000000000000 N
   0.2142857142857143    0.7619047142857142    0.2000000000000000 N
   0.2142857142857143    0.9047618571428571    0.2000000000000000 N
   0.3571428571428572    0.0476190000000000    0.2000000000000000 N
   0.3571428571428572    0.1904761428571429    0.2000000000000000 N
   0.3571428571428572    0.3333332857142858    0.2000000000000000 N
   0.3571428571428572    0.4761904285714285    0.2000000000000000 N
   0.3571428571428572    0.6190475714285715    0.2000000000000000 N
   0.3571428571428572    0.7619047142857142    0.2000000000000000 N
   0.3571428571428572    0.9047618571428571    0.2000000000000000 N
   0.5000000000000000    0.0476190000000000    0.2000000000000000 N
   0.5000000000000000    0.1904761428571429    0.2000000000000000 N
   0.5000000000000000    0.3333332857142858    0.2000000000000000 N
   0.5000000000000000    0.4761904285714285    0.2000000000000000 N
   0.5000000000000000    0.6190475714285715    0.2000000000000000 N
   0.5000000000000000    0.7619047142857142    0.2000000000000000 N
   0.5000000000000000    0.9047618571428571    0.2000000000000000 N
   0.6428571428571429    0.0476190000000000    0.2000000000000000 N
   0.6428571428571429    0.1904761428571429    0.2000000000000000 N
   0.6428571428571429    0.3333332857142858    0.2000000000000000 N
   0.6428571428571429    0.4761904285714285    0.2000000000000000 N
   0.6428571428571429    0.6190475714285715    0.2000000000000000 N
   0.6428571428571429    0.7619047142857142    0.2000000000000000 N
   0.6428571428571429    0.9047618571428571    0.2000000000000000 N
   0.7857142857142857    0.0476190000000000    0.2000000000000000 N
   0.7857142857142857    0.1904761428571429    0.2000000000000000 N
   0.7857142857142857    0.3333332857142858    0.2000000000000000 N
   0.7857142857142857    0.4761904285714285    0.2000000000000000 N
   0.7857142857142857    0.6190475714285715    0.2000000000000000 N
   0.7857142857142857    0.7619047142857142    0.2000000000000000 N
   0.7857142857142857    0.9047618571428571    0.2000000000000000 N
   0.9285714285714286    0.0476190000000000    0.2000000000000000 N
   0.9285714285714286    0.1904761428571429    0.2000000000000000 N
   0.9285714285714286    0.3333332857142858    0.2000000000000000 N
   0.9285714285714286    0.4761904285714285    0.2000000000000000 N
   0.9285714285714286    0.6190475714285715    0.2000000000000000 N
   0.9285714285714286    0.7619047142857142    0.2000000000000000 N
   0.9285714285714286    0.9047618571428571    0.2000000000000000 N
   0.0000000000000000    0.0000000000000000    0.3133333333333334 O
   0.0000000000000000    0.1428571428571429    0.3133333333333334 O
   0.0000000000000000    0.2857142857142858    0.3133333333333334 O
   0.0000000000000000    0.4285714285714285    0.3133333333333334 O
   0.0000000000000000    0.5714285714285715    0.3133333333333334 O
   0.0000000000000000    0.7142857142857142    0.3133333333333334 O
   0.0000000000000000    0.8571428571428571    0.3133333333333334 O
   0.1428571428571428    0.0000000000000000    0.3133333333333334 O
   0.1428571428571428    0.1428571428571429    0.3133333333333334 O
   0.1428571428571428    0.2857142857142858    0.3133333333333334 O
   0.1428571428571428    0.4285714285714285    0.3133333333333334 O
   0.1428571428571428    0.5714285714285715    0.3133333333333334 O
   0.1428571428571428    0.7142857142857142    0.3133333333333334 O
   0.1428571428571428    0.8571428571428571    0.3133333333333334 O
   0.2857142857142857    0.0000000000000000    0.3133333333333334 O
   0.2857142857142857    0.1428571428571429    0.3133333333333334 O
   0.2857142857142857    0.2857142857142858    0.3133333333333334 O
   0.2857142857142857    0.4285714285714285    0.3133333333333334 O
   0.2857142857142857    0.5714285714285715    0.3133333333333334 O
   0.2857142857142857    0.7142857142857142    0.3133333333333334 O
   0.2857142857142857    0.8571428571428571    0.3133333333333334 O
   0.4285714285714285    0.0000000000000000    0.3133333333333334 O
   0.4285714285714285    0.1428571428571429    0.3133333333333334 O
   0.4285714285714285    0.2857142857142858    0.3133333333333334 O
   0.4285714285714285    0.4285714285714285    0.3133333333333334 O
   0.4285714285714285    0.5714285714285715    0.3133333333333334 O
   0.4285714285714285    0.7142857142857142    0.3133333333333334 O
   0.4285714285714285    0.8571428571428571    0.3133333333333334 O
   0.5714285714285714    0.0000000000000000    0.3133333333333334 O
   0.5714285714285714    0.1428571428571429    0.3133333333333334 O
   0.5714285714285714    0.2857142857142858    0.3133333333333334 O
   0.5714285714285714    0.4285714285714285    0.3133333333333334 O
   0.5714285714285714    0.5714285714285715    0.3133333333333334 O
   0.5714285714285714    0.7142857142857142    0.3133333333333334 O
   0.5714285714285714    0.8571428571428571    0.3133333333333334 O
   0.7142857142857142    0.0000000000000000    0.3133333333333334 O
   0.7142857142857142    0.1428571428571429    0.3133333333333334 O
   0.7142857142857142    0.2857142857142858    0.3133333333333334 O
   0.7142857142857142    0.4285714285714285    0.3133333333333334 O
   0.7142857142857142    0.5714285714285715    0.3133333333333334 O
   0.7142857142857142    0.7142857142857142    0.3133333333333334 O
   0.7142857142857142    0.8571428571428571    0.3133333333333334 O
   0.8571428571428571    0.0000000000000000    0.3133333333333334 O
   0.8571428571428571    0.1428571428571429    0.3133333333333334 O
   0.8571428571428571    0.2857142857142858    0.3133333333333334 O