hBN_water_Odown_Hup_rotated_primitive_cell
1.00000
5.00909 0.00000 0.00000
0.00000 4.33800 0.00000
0.00000 0.00000 30.00000
B N O H
4 4 1 2
Cartesian
-1.252272500 0.723001446 6.000000000
1.252272500 0.723001446 6.000000000
0.000000000 -1.445998554 6.000000000
2.504545000 -1.445998554 6.000000000
-1.252272500 -0.723001446 6.000000000
1.252272500 -0.723001446 6.000000000
0.000000000 1.445998554 6.000000000
2.504545000 1.445998554 6.000000000
0.030000000 -1.055998554 9.200000000
0.850000000 -1.525998554 9.450000000
-0.680000000 -1.515998554 9.680000000
