B400 H200 N400 O100
1.0
  50.0908999999999978    0.0000000000000000    0.0000000000000000
   0.0000000000000000   43.3800000000000026    0.0000000000000000
   0.0000000000000000    0.0000000000000000   30.0000000000000000
B N O H
400 400 100 200
direct
   0.9750000000000000    0.0166667000000000    0.2000000000000000 B
   0.9750000000000000    0.1166667000000000    0.2000000000000000 B
   0.9750000000000000    0.2166667000000000    0.2000000000000000 B
   0.9750000000000000    0.3166667000000000    0.2000000000000000 B
   0.9750000000000000    0.4166667000000000    0.2000000000000000 B
   0.9750000000000000    0.5166667000000000    0.2000000000000000 B
   0.9750000000000000    0.6166667000000001    0.2000000000000000 B
   0.9750000000000000    0.7166667000000000    0.2000000000000000 B
   0.9750000000000000    0.8166666999999999    0.2000000000000000 B
   0.9750000000000000    0.9166666999999999    0.2000000000000000 B
   0.0750000000000000    0.0166667000000000    0.2000000000000000 B
   0.0750000000000000    0.1166667000000000    0.2000000000000000 B
   0.0750000000000000    0.2166667000000000    0.2000000000000000 B
   0.0750000000000000    0.3166667000000000    0.2000000000000000 B
   0.0750000000000000    0.4166667000000000    0.2000000000000000 B
   0.0750000000000000    0.5166667000000000    0.2000000000000000 B
   0.0750000000000000    0.6166667000000001    0.2000000000000000 B
   0.0750000000000000    0.7166667000000000    0.2000000000000000 B
   0.0750000000000000    0.8166666999999999    0.2000000000000000 B
   0.0750000000000000    0.9166666999999999    0.2000000000000000 B
   0.1750000000000000    0.0166667000000000    0.2000000000000000 B
   0.1750000000000000    0.1166667000000000    0.2000000000000000 B
   0.1750000000000000    0.2166667000000000    0.2000000000000000 B
   0.1750000000000000    0.3166667000000000    0.2000000000000000 B
   0.1750000000000000    0.4166667000000000    0.2000000000000000 B
   0.1750000000000000    0.5166667000000000    0.2000000000000000 B
   0.1750000000000000    0.6166667000000001    0.2000000000000000 B
   0.1750000000000000    0.7166667000000000    0.2000000000000000 B
   0.1750000000000000    0.8166666999999999    0.2000000000000000 B
   0.1750000000000000    0.9166666999999999    0.2000000000000000 B
   0.2750000000000000    0.0166667000000000    0.2000000000000000 B
   0.2750000000000000    0.1166667000000000    0.2000000000000000 B
   0.2750000000000000    0.2166667000000000    0.2000000000000000 B
   0.2750000000000000    0.3166667000000000    0.2000000000000000 B
   0.2750000000000000    0.4166667000000000    0.2000000000000000 B
   0.2750000000000000    0.5166667000000000    0.2000000000000000 B
   0.2750000000000000    0.6166667000000001    0.2000000000000000 B
   0.2750000000000000    0.7166667000000000    0.2000000000000000 B
   0.2750000000000000    0.8166666999999999    0.2000000000000000 B
   0.2750000000000000    0.9166666999999999    0.2000000000000000 B
   0.3750000000000001    0.0166667000000000    0.2000000000000000 B
   0.3750000000000001    0.1166667000000000    0.2000000000000000 B
   0.3750000000000001    0.2166667000000000    0.2000000000000000 B
   0.3750000000000001    0.3166667000000000    0.2000000000000000 B
   0.3750000000000001    0.4166667000000000    0.2000000000000000 B
   0.3750000000000001    0.5166667000000000    0.2000000000000000 B
   0.3750000000000001    0.6166667000000001    0.2000000000000000 B
   0.3750000000000001    0.7166667000000000    0.2000000000000000 B
   0.3750000000000001    0.8166666999999999    0.2000000000000000 B
   0.3750000000000001    0.9166666999999999    0.2000000000000000 B
   0.4750000000000000    0.0166667000000000    0.2000000000000000 B
   0.4750000000000000    0.1166667000000000    0.2000000000000000 B
   0.4750000000000000    0.2166667000000000    0.2000000000000000 B
   0.4750000000000000    0.3166667000000000    0.2000000000000000 B
   0.4750000000000000    0.4166667000000000    0.2000000000000000 B
   0.4750000000000000    0.5166667000000000    0.2000000000000000 B
   0.4750000000000000    0.6166667000000001    0.2000000000000000 B
   0.4750000000000000    0.7166667000000000    0.2000000000000000 B
   0.4750000000000000    0.8166666999999999    0.2000000000000000 B
   0.4750000000000000    0.9166666999999999    0.2000000000000000 B
   0.5750000000000001    0.0166667000000000    0.2000000000000000 B
   0.5750000000000001    0.1166667000000000    0.2000000000000000 B
   0.5750000000000001    0.2166667000000000    0.2000000000000000 B
   0.5750000000000001    0.3166667000000000    0.2000000000000000 B
   0.5750000000000001    0.4166667000000000    0.2000000000000000 B
   0.5750000000000001    0.5166667000000000    0.2000000000000000 B
   0.5750000000000001    0.6166667000000001    0.2000000000000000 B
   0.5750000000000001    0.7166667000000000    0.2000000000000000 B
   0.5750000000000001    0.8166666999999999    0.2000000000000000 B
   0.5750000000000001    0.9166666999999999    0.2000000000000000 B
   0.6750000000000002    0.0166667000000000    0.2000000000000000 B
   0.6750000000000002    0.1166667000000000    0.2000000000000000 B
   0.6750000000000002    0.2166667000000000    0.2000000000000000 B
   0.6750000000000002    0.3166667000000000    0.2000000000000000 B
   0.6750000000000002    0.4166667000000000    0.2000000000000000 B
   0.6750000000000002    0.5166667000000000    0.2000000000000000 B
   0.6750000000000002    0.6166667000000001    0.2000000000000000 B
   0.6750000000000002    0.7166667000000000    0.2000000000000000 B
   0.6750000000000002    0.8166666999999999    0.2000000000000000 B
   0.6750000000000002    0.9166666999999999    0.2000000000000000 B
   0.7750000000000001    0.0166667000000000    0.2000000000000000 B
   0.7750000000000001    0.1166667000000000    0.2000000000000000 B
   0.7750000000000001    0.2166667000000000    0.2000000000000000 B
   0.7750000000000001    0.3166667000000000    0.2000000000000000 B
   0.7750000000000001    0.4166667000000000    0.2000000000000000 B
   0.7750000000000001    0.5166667000000000    0.2000000000000000 B
   0.7750000000000001    0.6166667000000001    0.2000000000000000 B
   0.7750000000000001    0.7166667000000000    0.2000000000000000 B
   0.7750000000000001    0.8166666999999999    0.2000000000000000 B
   0.7750000000000001    0.9166666999999999    0.2000000000000000 B
   0.8750000000000000    0.0166667000000000    0.2000000000000000 B
   0.8750000000000000    0.1166667000000000    0.2000000000000000 B
   0.8750000000000000    0.2166667000000000    0.2000000000000000 B
   0.8750000000000000    0.3166667000000000    0.2000000000000000 B
   0.8750000000000000    0.4166667000000000    0.2000000000000000 B
   0.8750000000000000    0.5166667000000000    0.2000000000000000 B
   0.8750000000000000    0.6166667000000001    0.2000000000000000 B
   0.8750000000000000    0.7166667000000000    0.2000000000000000 B
   0.8750000000000000    0.8166666999999999    0.2000000000000000 B
   0.8750000000000000    0.9166666999999999    0.2000000000000000 B
   0.0250000000000000    0.0166667000000000    0.2000000000000000 B
   0.0250000000000000    0.1166667000000000    0.2000000000000000 B
   0.0250000000000000    0.2166667000000000    0.2000000000000000 B
   0.0250000000000000    0.3166667000000000    0.2000000000000000 B
   0.0250000000000000    0.4166667000000000    0.2000000000000000 B
   0.0250000000000000    0.5166667000000000    0.2000000000000000 B
   0.0250000000000000    0.6166667000000001    0.2000000000000000 B
   0.0250000000000000    0.7166667000000000    0.2000000000000000 B
   0.0250000000000000    0.8166666999999999    0.2000000000000000 B
   0.0250000000000000    0.9166666999999999    0.2000000000000000 B
   0.1250000000000000    0.0166667000000000    0.2000000000000000 B
   0.1250000000000000    0.1166667000000000    0.2000000000000000 B
   0.1250000000000000    0.2166667000000000    0.2000000000000000 B
   0.1250000000000000    0.3166667000000000    0.2000000000000000 B
   0.1250000000000000    0.4166667000000000    0.2000000000000000 B
   0.1250000000000000    0.5166667000000000    0.2000000000000000 B
   0.1250000000000000    0.6166667000000001    0.2000000000000000 B
   0.1250000000000000    0.7166667000000000    0.2000000000000000 B
   0.1250000000000000    0.8166666999999999    0.2000000000000000 B
   0.1250000000000000    0.9166666999999999    0.2000000000000000 B
   0.2250000000000000    0.0166667000000000    0.2000000000000000 B
   0.2250000000000000    0.1166667000000000    0.2000000000000000 B
   0.2250000000000000    0.2166667000000000    0.2000000000000000 B
   0.2250000000000000    0.3166667000000000    0.2000000000000000 B
   0.2250000000000000    0.4166667000000000    0.2000000000000000 B
   0.2250000000000000    0.5166667000000000    0.2000000000000000 B
   0.2250000000000000    0.6166667000000001    0.2000000000000000 B
   0.2250000000000000    0.7166667000000000    0.2000000000000000 B
   0.2250000000000000    0.8166666999999999    0.2000000000000000 B
   0.2250000000000000    0.9166666999999999    0.2000000000000000 B
   0.3250000000000001    0.0166667000000000    0.2000000000000000 B
   0.3250000000000001    0.1166667000000000    0.2000000000000000 B
   0.3250000000000001    0.2166667000000000    0.2000000000000000 B
   0.3250000000000001    0.3166667000000000    0.2000000000000000 B
   0.3250000000000001    0.4166667000000000    0.2000000000000000 B
   0.3250000000000001    0.5166667000000000    0.2000000000000000 B
   0.3250000000000001    0.6166667000000001    0.2000000000000000 B
   0.3250000000000001    0.7166667000000000    0.2000000000000000 B
   0.3250000000000001    0.8166666999999999    0.2000000000000000 B
   0.3250000000000001    0.9166666999999999    0.2000000000000000 B
   0.4250000000000000    0.0166667000000000    0.2000000000000000 B
   0.4250000000000000    0.1166667000000000    0.2000000000000000 B
   0.4250000000000000    0.2166667000000000    0.2000000000000000 B
   0.4250000000000000    0.3166667000000000    0.2000000000000000 B
   0.4250000000000000    0.4166667000000000    0.2000000000000000 B
   0.4250000000000000    0.5166667000000000    0.2000000000000000 B
   0.4250000000000000    0.6166667000000001    0.2000000000000000 B
   0.4250000000000000    0.7166667000000000    0.2000000000000000 B
   0.4250000000000000    0.8166666999999999    0.2000000000000000 B
   0.4250000000000000    0.9166666999999999    0.2000000000000000 B
   0.5250000000000000    0.0166667000000000    0.2000000000000000 B
   0.5250000000000000    0.1166667000000000    0.2000000000000000 B
   0.5250000000000000    0.2166667000000000    0.2000000000000000 B
   0.5250000000000000    0.3166667000000000    0.2000000000000000 B
   0.5250000000000000    0.4166667000000000    0.2000000000000000 B
   0.5250000000000000    0.5166667000000000    0.2000000000000000 B
   0.5250000000000000    0.6166667000000001    0.2000000000000000 B
   0.5250000000000000    0.7166667000000000    0.2000000000000000 B
   0.5250000000000000    0.8166666999999999    0.2000000000000000 B
   0.5250000000000000    0.9166666999999999    0.2000000000000000 B
   0.6250000000000001    0.0166667000000000    0.2000000000000000 B
   0.6250000000000001    0.1166667000000000    0.2000000000000000 B
   0.6250000000000001    0.2166667000000000    0.2000000000000000 B
   0.6250000000000001    0.3166667000000000    0.2000000000000000 B
   0.6250000000000001    0.4166667000000000    0.2000000000000000 B
   0.6250000000000001    0.5166667000000000    0.2000000000000000 B
   0.6250000000000001    0.6166667000000001    0.2000000000000000 B
   0.6250000000000001    0.7166667000000000    0.2000000000000000 B
   0.6250000000000001    0.8166666999999999    0.2000000000000000 B
   0.6250000000000001    0.9166666999999999    0.2000000000000000 B
   0.7250000000000000    0.0166667000000000    0.2000000000000000 B
   0.7250000000000000    0.1166667000000000    0.2000000000000000 B
   0.7250000000000000    0.2166667000000000    0.2000000000000000 B
   0.7250000000000000    0.3166667000000000    0.2000000000000000 B
   0.7250000000000000    0.4166667000000000    0.2000000000000000 B
   0.7250000000000000    0.5166667000000000    0.2000000000000000 B
   0.7250000000000000    0.6166667000000001    0.2000000000000000 B
   0.7250000000000000    0.7166667000000000    0.2000000000000000 B
   0.7250000000000000    0.8166666999999999    0.2000000000000000 B
   0.7250000000000000    0.9166666999999999    0.2000000000000000 B
   0.8250000000000001    0.0166667000000000    0.2000000000000000 B
   0.8250000000000001    0.1166667000000000    0.2000000000000000 B
   0.8250000000000001    0.2166667000000000    0.2000000000000000 B
   0.8250000000000001    0.3166667000000000    0.2000000000000000 B
   0.8250000000000001    0.4166667000000000    0.2000000000000000 B
   0.8250000000000001    0.5166667000000000    0.2000000000000000 B
   0.8250000000000001    0.6166667000000001    0.2000000000000000 B
   0.8250000000000001    0.7166667000000000    0.2000000000000000 B
   0.8250000000000001    0.8166666999999999    0.2000000000000000 B
   0.8250000000000001    0.9166666999999999    0.2000000000000000 B
   0.9249999999999999    0.0166667000000000    0.2000000000000000 B
   0.9249999999999999    0.1166667000000000    0.2000000000000000 B
   0.9249999999999999    0.2166667000000000    0.2000000000000000 B
   0.9249999999999999    0.3166667000000000    0.2000000000000000 B
   0.9249999999999999    0.4166667000000000    0.2000000000000000 B
   0.9249999999999999    0.5166667000000000    0.2000000000000000 B
   0.9249999999999999    0.6166667000000001    0.2000000000000000 B
   0.9249999999999999    0.7166667000000000    0.2000000000000000 B
   0.9249999999999999    0.8166666999999999    0.2000000000000000 B
   0.9249999999999999    0.9166666999999999    0.2000000000000000 B
   0.0000000000000000    0.9666667000000000    0.2000000000000000 B
   0.0000000000000000    0.0666667000000000    0.2000000000000000 B
   0.0000000000000000    0.1666667000000000    0.2000000000000000 B
   0.0000000000000000    0.2666667000000001    0.2000000000000000 B
   0.0000000000000000    0.3666667000000000    0.2000000000000000 B
   0.0000000000000000    0.4666667000000000    0.2000000000000000 B
   0.0000000000000000    0.5666667000000001    0.2000000000000000 B
   0.0000000000000000    0.6666667000000001    0.2000000000000000 B
   0.0000000000000000    0.7666666999999999    0.2000000000000000 B
   0.0000000000000000    0.8666667000000000    0.2000000000000000 B
   0.1000000000000000    0.9666667000000000    0.2000000000000000 B
   0.1000000000000000    0.0666667000000000    0.2000000000000000 B
   0.1000000000000000    0.1666667000000000    0.2000000000000000 B
   0.1000000000000000    0.2666667000000001    0.2000000000000000 B
   0.1000000000000000    0.3666667000000000    0.2000000000000000 B
   0.1000000000000000    0.4666667000000000    0.2000000000000000 B
   0.1000000000000000    0.5666667000000001    0.2000000000000000 B
   0.1000000000000000    0.6666667000000001    0.2000000000000000 B
   0.1000000000000000    0.7666666999999999    0.2000000000000000 B
   0.1000000000000000    0.8666667000000000    0.2000000000000000 B
   0.2000000000000000    0.9666667000000000    0.2000000000000000 B
   0.2000000000000000    0.0666667000000000    0.2000000000000000 B
   0.2000000000000000    0.1666667000000000    0.2000000000000000 B
   0.2000000000000000    0.2666667000000001    0.2000000000000000 B
   0.2000000000000000    0.3666667000000000    0.2000000000000000 B
   0.2000000000000000    0.4666667000000000    0.2000000000000000 B
   0.2000000000000000    0.5666667000000001    0.2000000000000000 B
   0.2000000000000000    0.6666667000000001    0.2000000000000000 B
   0.2000000000000000    0.7666666999999999    0.2000000000000000 B
   0.2000000000000000    0.8666667000000000    0.2000000000000000 B
   0.3000000000000000    0.9666667000000000    0.2000000000000000 B
   0.3000000000000000    0.0666667000000000    0.2000000000000000 B
   0.3000000000000000    0.1666667000000000    0.2000000000000000 B
   0.3000000000000000    0.2666667000000001    0.2000000000000000 B
   0.3000000000000000    0.3666667000000000    0.2000000000000000 B
   0.3000000000000000    0.4666667000000000    0.2000000000000000 B
   0.3000000000000000    0.5666667000000001    0.2000000000000000 B
   0.3000000000000000    0.6666667000000001    0.2000000000000000 B
   0.3000000000000000    0.7666666999999999    0.2000000000000000 B
   0.3000000000000000    0.8666667000000000    0.2000000000000000 B
   0.4000000000000001    0.9666667000000000    0.2000000000000000 B
   0.4000000000000001    0.0666667000000000    0.2000000000000000 B
   0.4000000000000001    0.1666667000000000    0.2000000000000000 B
   0.4000000000000001    0.2666667000000001    0.2000000000000000 B
   0.4000000000000001    0.3666667000000000    0.2000000000000000 B
   0.4000000000000001    0.4666667000000000    0.2000000000000000 B
   0.4000000000000001    0.5666667000000001    0.2000000000000000 B
   0.4000000000000001    0.6666667000000001    0.2000000000000000 B
   0.4000000000000001    0.7666666999999999    0.2000000000000000 B
   0.4000000000000001    0.8666667000000000    0.2000000000000000 B
   0.5000000000000000    0.9666667000000000    0.2000000000000000 B
   0.5000000000000000    0.0666667000000000    0.2000000000000000 B
   0.5000000000000000    0.1666667000000000    0.2000000000000000 B
   0.5000000000000000    0.2666667000000001    0.2000000000000000 B
   0.5000000000000000    0.3666667000000000    0.2000000000000000 B
   0.5000000000000000    0.4666667000000000    0.2000000000000000 B
   0.5000000000000000    0.5666667000000001    0.2000000000000000 B
   0.5000000000000000    0.6666667000000001    0.2000000000000000 B
   0.5000000000000000    0.7666666999999999    0.2000000000000000 B
   0.5000000000000000    0.8666667000000000    0.2000000000000000 B
   0.6000000000000001    0.9666667000000000    0.2000000000000000 B
   0.6000000000000001    0.0666667000000000    0.2000000000000000 B
   0.6000000000000001    0.1666667000000000    0.2000000000000000 B
   0.6000000000000001    0.2666667000000001    0.2000000000000000 B
   0.6000000000000001    0.3666667000000000    0.2000000000000000 B
   0.6000000000000001    0.4666667000000000    0.2000000000000000 B
   0.6000000000000001    0.5666667000000001    0.2000000000000000 B
   0.6000000000000001    0.6666667000000001    0.2000000000000000 B
   0.6000000000000001    0.7666666999999999    0.2000000000000000 B
   0.6000000000000001    0.8666667000000000    0.2000000000000000 B
   0.7000000000000001    0.9666667000000000    0.2000000000000000 B
   0.7000000000000001    0.0666667000000000    0.2000000000000000 B
   0.7000000000000001    0.1666667000000000    0.2000000000000000 B
   0.7000000000000001    0.2666667000000001    0.2000000000000000 B
   0.7000000000000001    0.3666667000000000    0.2000000000000000 B
   0.7000000000000001    0.4666667000000000    0.2000000000000000 B
   0.7000000000000001    0.5666667000000001    0.2000000000000000 B
   0.7000000000000001    0.6666667000000001    0.2000000000000000 B
   0.7000000000000001    0.7666666999999999    0.2000000000000000 B
   0.7000000000000001    0.8666667000000000    0.2000000000000000 B
   0.8000000000000002    0.9666667000000000    0.2000000000000000 B
   0.8000000000000002    0.0666667000000000    0.2000000000000000 B
   0.8000000000000002    0.1666667000000000    0.2000000000000000 B
   0.8000000000000002    0.2666667000000001    0.2000000000000000 B
   0.8000000000000002    0.3666667000000000    0.2000000000000000 B
   0.8000000000000002    0.4666667000000000    0.2000000000000000 B
   0.8000000000000002    0.5666667000000001    0.2000000000000000 B
   0.8000000000000002    0.6666667000000001    0.2000000000000000 B
   0.8000000000000002    0.7666666999999999    0.2000000000000000 B
   0.8000000000000002    0.8666667000000000    0.2000000000000000 B
   0.9000000000000000    0.9666667000000000    0.2000000000000000 B
   0.9000000000000000    0.0666667000000000    0.2000000000000000 B
   0.9000000000000000    0.1666667000000000    0.2000000000000000 B
   0.9000000000000000    0.2666667000000001    0.2000000000000000 B
   0.9000000000000000    0.3666667000000000    0.2000000000000000 B
   0.9000000000000000    0.4666667000000000    0.2000000000000000 B
   0.9000000000000000    0.5666667000000001    0.2000000000000000 B
   0.9000000000000000    0.6666667000000001    0.2000000000000000 B
   0.9000000000000000    0.7666666999999999    0.2000000000000000 B
   0.9000000000000000    0.8666667000000000    0.2000000000000000 B
   0.0500000000000000    0.9666667000000000    0.2000000000000000 B
   0.0500000000000000    0.0666667000000000    0.2000000000000000 B
   0.0500000000000000    0.1666667000000000    0.2000000000000000 B
   0.0500000000000000    0.2666667000000001    0.2000000000000000 B
   0.0500000000000000    0.3666667000000000    0.2000000000000000 B
   0.0500000000000000    0.4666667000000000    0.2000000000000000 B
   0.0500000000000000    0.5666667000000001    0.2000000000000000 B
   0.0500000000000000    0.6666667000000001    0.2000000000000000 B
   0.0500000000000000    0.7666666999999999    0.2000000000000000 B
   0.0500000000000000    0.8666667000000000    0.2000000000000000 B
   0.1500000000000000    0.9666667000000000    0.2000000000000000 B
   0.1500000000000000    0.0666667000000000    0.2000000000000000 B
   0.1500000000000000    0.1666667000000000    0.2000000000000000 B
   0.1500000000000000    0.2666667000000001    0.2000000000000000 B
   0.1500000000000000    0.3666667000000000    0.2000000000000000 B
   0.1500000000000000    0.4666667000000000    0.2000000000000000 B
   0.1500000000000000    0.5666667000000001    0.2000000000000000 B
   0.1500000000000000    0.6666667000000001    0.2000000000000000 B
   0.1500000000000000    0.7666666999999999    0.2000000000000000 B
   0.1500000000000000    0.8666667000000000    0.2000000000000000 B
   0.2500000000000001    0.9666667000000000    0.2000000000000000 B
   0.2500000000000001    0.0666667000000000    0.2000000000000000 B
   0.2500000000000001    0.1666667000000000    0.2000000000000000 B
   0.2500000000000001    0.2666667000000001    0.2000000000000000 B
   0.2500000000000001    0.3666667000000000    0.2000000000000000 B
   0.2500000000000001    0.4666667000000000    0.2000000000000000 B
   0.2500000000000001    0.5666667000000001    0.2000000000000000 B
   0.2500000000000001    0.6666667000000001    0.2000000000000000 B
   0.2500000000000001    0.7666666999999999    0.2000000000000000 B
   0.2500000000000001    0.8666667000000000    0.2000000000000000 B
   0.3500000000000000    0.9666667000000000    0.2000000000000000 B
   0.3500000000000000    0.0666667000000000    0.2000000000000000 B
   0.3500000000000000    0.1666667000000000    0.2000000000000000 B
   0.3500000000000000    0.2666667000000001    0.2000000000000000 B
   0.3500000000000000    0.3666667000000000    0.2000000000000000 B
   0.3500000000000000    0.4666667000000000    0.2000000000000000 B
   0.3500000000000000    0.5666667000000001    0.2000000000000000 B
   0.3500000000000000    0.6666667000000001    0.2000000000000000 B
   0.3500000000000000    0.7666666999999999    0.2000000000000000 B
   0.3500000000000000    0.8666667000000000    0.2000000000000000 B
   0.4500000000000001    0.9666667000000000    0.2000000000000000 B
   0.4500000000000001    0.0666667000000000    0.2000000000000000 B
   0.4500000000000001    0.1666667000000000    0.2000000000000000 B
   0.4500000000000001    0.2666667000000001    0.2000000000000000 B
   0.4500000000000001    0.3666667000000000    0.2000000000000000 B
   0.4500000000000001    0.4666667000000000    0.2000000000000000 B
   0.4500000000000001    0.5666667000000001    0.2000000000000000 B
   0.4500000000000001    0.6666667000000001    0.2000000000000000 B
   0.4500000000000001    0.7666666999999999    0.2000000000000000 B
   0.4500000000000001    0.8666667000000000    0.2000000000000000 B
   0.5500000000000000    0.9666667000000000    0.2000000000000000 B
   0.5500000000000000    0.0666667000000000    0.2000000000000000 B
   0.5500000000000000    0.1666667000000000    0.2000000000000000 B
   0.5500000000000000    0.2666667000000001    0.2000000000000000 B
   0.5500000000000000    0.3666667000000000    0.2000000000000000 B
   0.5500000000000000    0.4666667000000000    0.2000000000000000 B
   0.5500000000000000    0.5666667000000001    0.2000000000000000 B
   0.5500000000000000    0.6666667000000001    0.2000000000000000 B
   0.5500000000000000    0.7666666999999999    0.2000000000000000 B
   0.5500000000000000    0.8666667000000000    0.2000000000000000 B
   0.6500000000000001    0.9666667000000000    0.2000000000000000 B
   0.6500000000000001    0.0666667000000000    0.2000000000000000 B
   0.6500000000000001    0.1666667000000000    0.2000000000000000 B
   0.6500000000000001    0.2666667000000001    0.2000000000000000 B
   0.6500000000000001    0.3666667000000000    0.2000000000000000 B
   0.6500000000000001    0.4666667000000000    0.2000000000000000 B
   0.6500000000000001    0.5666667000000001    0.2000000000000000 B
   0.6500000000000001    0.6666667000000001    0.2000000000000000 B
   0.6500000000000001    0.7666666999999999    0.2000000000000000 B
   0.6500000000000001    0.8666667000000000    0.2000000000000000 B
   0.7500000000000001    0.9666667000000000    0.2000000000000000 B
   0.7500000000000001    0.0666667000000000    0.2000000000000000 B
   0.7500000000000001    0.1666667000000000    0.2000000000000000 B
   0.7500000000000001    0.2666667000000001    0.2000000000000000 B
   0.7500000000000001    0.3666667000000000    0.2000000000000000 B
   0.7500000000000001    0.4666667000000000    0.2000000000000000 B
   0.7500000000000001    0.5666667000000001    0.2000000000000000 B
   0.7500000000000001    0.6666667000000001    0.2000000000000000 B
   0.7500000000000001    0.7666666999999999    0.2000000000000000 B
   0.7500000000000001    0.8666667000000000    0.2000000000000000 B
   0.8500000000000001    0.9666667000000000    0.2000000000000000 B
   0.8500000000000001    0.0666667000000000    0.2000000000000000 B
   0.8500000000000001    0.1666667000000000    0.2000000000000000 B
   0.8500000000000001    0.2666667000000001    0.2000000000000000 B
   0.8500000000000001    0.3666667000000000    0.2000000000000000 B
   0.8500000000000001    0.4666667000000000    0.2000000000000000 B
   0.8500000000000001    0.5666667000000001    0.2000000000000000 B
   0.8500000000000001    0.6666667000000001    0.2000000000000000 B
   0.8500000000000001    0.7666666999999999    0.2000000000000000 B
   0.8500000000000001    0.8666667000000000    0.2000000000000000 B
   0.9500000000000000    0.9666667000000000    0.2000000000000000 B
   0.9500000000000000    0.0666667000000000    0.2000000000000000 B
   0.9500000000000000    0.1666667000000000    0.2000000000000000 B
   0.9500000000000000    0.2666667000000001    0.2000000000000000 B
   0.9500000000000000    0.3666667000000000    0.2000000000000000 B
   0.9500000000000000    0.4666667000000000    0.2000000000000000 B
   0.9500000000000000    0.5666667000000001    0.2000000000000000 B
   0.9500000000000000    0.6666667000000001    0.2000000000000000 B
   0.9500000000000000    0.7666666999999999    0.2000000000000000 B
   0.9500000000000000    0.8666667000000000    0.2000000000000000 B
   0.9750000000000000    0.9833333000000000    0.2000000000000000 N
   0.9750000000000000    0.0833333000000000    0.2000000000000000 N
   0.9750000000000000    0.1833333000000000    0.2000000000000000 N
   0.9750000000000000    0.2833333000000001    0.2000000000000000 N
   0.9750000000000000    0.3833332999999999    0.2000000000000000 N
   0.9750000000000000    0.4833333000000000    0.2000000000000000 N
   0.9750000000000000    0.5833333000000001    0.2000000000000000 N
   0.9750000000000000    0.6833333000000000    0.2000000000000000 N
   0.9750000000000000    0.7833333000000000    0.2000000000000000 N
   0.9750000000000000    0.8833333000000000    0.2000000000000000 N
   0.0750000000000000    0.9833333000000000    0.2000000000000000 N
   0.0750000000000000    0.0833333000000000    0.2000000000000000 N
   0.0750000000000000    0.1833333000000000    0.2000000000000000 N
   0.0750000000000000    0.2833333000000001    0.2000000000000000 N
   0.0750000000000000    0.3833332999999999    0.2000000000000000 N
   0.0750000000000000    0.4833333000000000    0.2000000000000000 N
   0.0750000000000000    0.5833333000000001    0.2000000000000000 N
   0.0750000000000000    0.6833333000000000    0.2000000000000000 N
   0.0750000000000000    0.7833333000000000    0.2000000000000000 N
   0.0750000000000000    0.8833333000000000    0.2000000000000000 N
   0.1750000000000000    0.9833333000000000    0.2000000000000000 N
   0.1750000000000000    0.0833333000000000    0.2000000000000000 N
   0.1750000000000000    0.1833333000000000    0.2000000000000000 N
   0.1750000000000000    0.2833333000000001    0.2000000000000000 N
   0.1750000000000000    0.3833332999999999    0.2000000000000000 N
   0.1750000000000000    0.4833333000000000    0.2000000000000000 N
   0.1750000000000000    0.5833333000000001    0.2000000000000000 N
   0.1750000000000000    0.6833333000000000    0.2000000000000000 N
   0.1750000000000000    0.7833333000000000    0.2000000000000000 N
   0.1750000000000000    0.8833333000000000    0.2000000000000000 N
   0.2750000000000000    0.9833333000000000    0.2000000000000000 N
   0.2750000000000000    0.0833333000000000    0.2000000000000000 N
   0.2750000000000000    0.1833333000000000    0.2000000000000000 N
   0.2750000000000000    0.2833333000000001    0.2000000000000000 N
   0.2750000000000000    0.3833332999999999    0.2000000000000000 N
   0.2750000000000000    0.4833333000000000    0.2000000000000000 N
   0.2750000000000000    0.5833333000000001    0.2000000000000000 N