B100 H50 N100 O25
1.0
25.045450 0.000000 0.000000
0.000000 21.690000 0.000000
0.000000 0.000000 30.000000
B N O H
100 100 25 50
direct
0.950000 0.033333 0.200000 B
0.950000 0.233333 0.200000 B
0.950000 0.433333 0.200000 B
0.950000 0.633333 0.200000 B
0.950000 0.833333 0.200000 B
0.150000 0.033333 0.200000 B
0.150000 0.233333 0.200000 B
0.150000 0.433333 0.200000 B
0.150000 0.633333 0.200000 B
0.150000 0.833333 0.200000 B
0.350000 0.033333 0.200000 B
0.350000 0.233333 0.200000 B
0.350000 0.433333 0.200000 B
0.350000 0.633333 0.200000 B
0.350000 0.833333 0.200000 B
0.550000 0.033333 0.200000 B
0.550000 0.233333 0.200000 B
0.550000 0.433333 0.200000 B
0.550000 0.633333 0.200000 B
0.550000 0.833333 0.200000 B
0.750000 0.033333 0.200000 B
0.750000 0.233333 0.200000 B
0.750000 0.433333 0.200000 B
0.750000 0.633333 0.200000 B
0.750000 0.833333 0.200000 B
0.050000 0.033333 0.200000 B
0.050000 0.233333 0.200000 B
0.050000 0.433333 0.200000 B
0.050000 0.633333 0.200000 B
0.050000 0.833333 0.200000 B
0.250000 0.033333 0.200000 B
0.250000 0.233333 0.200000 B
0.250000 0.433333 0.200000 B
0.250000 0.633333 0.200000 B
0.250000 0.833333 0.200000 B
0.450000 0.033333 0.200000 B
0.450000 0.233333 0.200000 B
0.450000 0.433333 0.200000 B
0.450000 0.633333 0.200000 B
0.450000 0.833333 0.200000 B
0.650000 0.033333 0.200000 B
0.650000 0.233333 0.200000 B
0.650000 0.433333 0.200000 B
0.650000 0.633333 0.200000 B
0.650000 0.833333 0.200000 B
0.850000 0.033333 0.200000 B
0.850000 0.233333 0.200000 B
0.850000 0.433333 0.200000 B
0.850000 0.633333 0.200000 B
0.850000 0.833333 0.200000 B
0.000000 0.933333 0.200000 B
0.000000 0.133333 0.200000 B
0.000000 0.333333 0.200000 B
0.000000 0.533333 0.200000 B
0.000000 0.733333 0.200000 B
0.200000 0.933333 0.200000 B
0.200000 0.133333 0.200000 B
0.200000 0.333333 0.200000 B
0.200000 0.533333 0.200000 B
0.200000 0.733333 0.200000 B
0.400000 0.933333 0.200000 B
0.400000 0.133333 0.200000 B
0.400000 0.333333 0.200000 B
0.400000 0.533333 0.200000 B
0.400000 0.733333 0.200000 B
0.600000 0.933333 0.200000 B
0.600000 0.133333 0.200000 B
0.600000 0.333333 0.200000 B
0.600000 0.533333 0.200000 B
0.600000 0.733333 0.200000 B
0.800000 0.933333 0.200000 B
0.800000 0.133333 0.200000 B
0.800000 0.333333 0.200000 B
0.800000 0.533333 0.200000 B
0.800000 0.733333 0.200000 B
0.100000 0.933333 0.200000 B
0.100000 0.133333 0.200000 B
0.100000 0.333333 0.200000 B
0.100000 0.533333 0.200000 B
0.100000 0.733333 0.200000 B
0.300000 0.933333 0.200000 B
0.300000 0.133333 0.200000 B
0.300000 0.333333 0.200000 B
0.300000 0.533333 0.200000 B
0.300000 0.733333 0.200000 B
0.500000 0.933333 0.200000 B
0.500000 0.133333 0.200000 B
0.500000 0.333333 0.200000 B
0.500000 0.533333 0.200000 B
0.500000 0.733333 0.200000 B
0.700000 0.933333 0.200000 B
0.700000 0.133333 0.200000 B
0.700000 0.333333 0.200000 B
0.700000 0.533333 0.200000 B
0.700000 0.733333 0.200000 B
0.900000 0.933333 0.200000 B
0.900000 0.133333 0.200000 B
0.900000 0.333333 0.200000 B
0.900000 0.533333 0.200000 B
0.900000 0.733333 0.200000 B
0.950000 0.966667 0.200000 N
0.950000 0.166667 0.200000 N
0.950000 0.366667 0.200000 N
0.950000 0.566667 0.200000 N
0.950000 0.766667 0.200000 N
0.150000 0.966667 0.200000 N
0.150000 0.166667 0.200000 N
0.150000 0.366667 0.200000 N
0.150000 0.566667 0.200000 N
0.150000 0.766667 0.200000 N
0.350000 0.966667 0.200000 N
0.350000 0.166667 0.200000 N
0.350000 0.366667 0.200000 N
0.350000 0.566667 0.200000 N
0.350000 0.766667 0.200000 N
0.550000 0.966667 0.200000 N
0.550000 0.166667 0.200000 N
0.550000 0.366667 0.200000 N
0.550000 0.566667 0.200000 N
0.550000 0.766667 0.200000 N
0.750000 0.966667 0.200000 N
0.750000 0.166667 0.200000 N
0.750000 0.366667 0.200000 N
0.750000 0.566667 0.200000 N
0.750000 0.766667 0.200000 N
0.050000 0.966667 0.200000 N
0.050000 0.166667 0.200000 N
0.050000 0.366667 0.200000 N
0.050000 0.566667 0.200000 N
0.050000 0.766667 0.200000 N
0.250000 0.966667 0.200000 N
0.250000 0.166667 0.200000 N
0.250000 0.366667 0.200000 N
0.250000 0.566667 0.200000 N
0.250000 0.766667 0.200000 N
0.450000 0.966667 0.200000 N
0.450000 0.166667 0.200000 N
0.450000 0.366667 0.200000 N
0.450000 0.566667 0.200000 N
0.450000 0.766667 0.200000 N
0.650000 0.966667 0.200000 N
0.650000 0.166667 0.200000 N
0.650000 0.366667 0.200000 N
0.650000 0.566667 0.200000 N
0.650000 0.766667 0.200000 N
0.850000 0.966667 0.200000 N
0.850000 0.166667 0.200000 N
0.850000 0.366667 0.200000 N
0.850000 0.566667 0.200000 N
0.850000 0.766667 0.200000 N
0.000000 0.066667 0.200000 N
0.000000 0.266667 0.200000 N
0.000000 0.466667 0.200000 N
0.000000 0.666667 0.200000 N
0.000000 0.866667 0.200000 N
0.200000 0.066667 0.200000 N
0.200000 0.266667 0.200000 N
0.200000 0.466667 0.200000 N
0.200000 0.666667 0.200000 N
0.200000 0.866667 0.200000 N
0.400000 0.066667 0.200000 N
0.400000 0.266667 0.200000 N
0.400000 0.466667 0.200000 N
0.400000 0.666667 0.200000 N
0.400000 0.866667 0.200000 N
0.600000 0.066667 0.200000 N
0.600000 0.266667 0.200000 N
0.600000 0.466667 0.200000 N
0.600000 0.666667 0.200000 N
0.600000 0.866667 0.200000 N
0.800000 0.066667 0.200000 N
0.800000 0.266667 0.200000 N
0.800000 0.466667 0.200000 N
0.800000 0.666667 0.200000 N
0.800000 0.866667 0.200000 N
0.100000 0.066667 0.200000 N
0.100000 0.266667 0.200000 N
0.100000 0.466667 0.200000 N
0.100000 0.666667 0.200000 N
0.100000 0.866667 0.200000 N
0.300000 0.066667 0.200000 N
0.300000 0.266667 0.200000 N
0.300000 0.466667 0.200000 N
0.300000 0.666667 0.200000 N
0.300000 0.866667 0.200000 N
0.500000 0.066667 0.200000 N
0.500000 0.266667 0.200000 N
0.500000 0.466667 0.200000 N
0.500000 0.666667 0.200000 N
0.500000 0.866667 0.200000 N
0.700000 0.066667 0.200000 N
0.700000 0.266667 0.200000 N
0.700000 0.466667 0.200000 N
0.700000 0.666667 0.200000 N
0.700000 0.866667 0.200000 N
0.900000 0.066667 0.200000 N
0.900000 0.266667 0.200000 N
0.900000 0.466667 0.200000 N
0.900000 0.666667 0.200000 N
0.900000 0.866667 0.200000 N
0.000000 0.000000 0.313333 O
0.000000 0.200000 0.313333 O
0.000000 0.400000 0.313333 O
0.000000 0.600000 0.313333 O
0.000000 0.800000 0.313333 O
0.200000 0.000000 0.313333 O
0.200000 0.200000 0.313333 O
0.200000 0.400000 0.313333 O
0.200000 0.600000 0.313333 O
0.200000 0.800000 0.313333 O
0.400000 0.000000 0.313333 O
0.400000 0.200000 0.313333 O
0.400000 0.400000 0.313333 O
0.400000 0.600000 0.313333 O
0.400000 0.800000 0.313333 O
0.600000 0.000000 0.313333 O
0.600000 0.200000 0.313333 O
0.600000 0.400000 0.313333 O
0.600000 0.600000 0.313333 O
0.600000 0.800000 0.313333 O
0.800000 0.000000 0.313333 O
0.800000 0.200000 0.313333 O
0.800000 0.400000 0.313333 O
0.800000 0.600000 0.313333 O
0.800000 0.800000 0.313333 O
0.000000 0.034899 0.293804 H
0.000000 0.234899 0.293804 H
0.000000 0.434899 0.293804 H
0.000000 0.634899 0.293804 H
0.000000 0.834899 0.293804 H
0.200000 0.034899 0.293804 H
0.200000 0.234899 0.293804 H
0.200000 0.434899 0.293804 H
0.200000 0.634899 0.293804 H
0.200000 0.834899 0.293804 H
0.400000 0.034899 0.293804 H
0.400000 0.234899 0.293804 H
0.400000 0.434899 0.293804 H
0.400000 0.634899 0.293804 H
0.400000 0.834899 0.293804 H
0.600000 0.034899 0.293804 H
0.600000 0.234899 0.293804 H
0.600000 0.434899 0.293804 H
0.600000 0.634899 0.293804 H
0.600000 0.834899 0.293804 H
0.800000 0.034899 0.293804 H
0.800000 0.234899 0.293804 H
0.800000 0.434899 0.293804 H
0.800000 0.634899 0.293804 H
0.800000 0.834899 0.293804 H
0.000000 0.965101 0.293804 H
0.000000 0.165101 0.293804 H
0.000000 0.365101 0.293804 H
0.000000 0.565101 0.293804 H
0.000000 0.765101 0.293804 H
0.200000 0.965101 0.293804 H
0.200000 0.165101 0.293804 H
0.200000 0.365101 0.293804 H
0.200000 0.565101 0.293804 H
0.200000 0.765101 0.293804 H
0.400000 0.965101 0.293804 H
0.400000 0.165101 0.293804 H
0.400000 0.365101 0.293804 H
0.400000 0.565101 0.293804 H
0.400000 0.765101 0.293804 H
0.600000 0.965101 0.293804 H
0.600000 0.165101 0.293804 H
0.600000 0.365101 0.293804 H
0.600000 0.565101 0.293804 H
0.600000 0.765101 0.293804 H
0.800000 0.965101 0.293804 H
0.800000 0.165101 0.293804 H
0.800000 0.365101 0.293804 H
0.800000 0.565101 0.293804 H
0.800000 0.765101 0.293804 H
