hBN_water_Oflat_Hflat_primitive_cell
1.00000
5.00909 0.00000 0.00000
0.00000 4.33800 0.00000
0.00000 0.00000 30.00000
B N O H
4 4 1 2
Cartesian
-1.252272500 0.723001446 6.000000000
1.252272500 0.723001446 6.000000000
0.000000000 -1.445998554 6.000000000
2.504545000 -1.445998554 6.000000000
-1.252272500 -0.723001446 6.000000000
1.252272500 -0.723001446 6.000000000
0.000000000 1.445998554 6.000000000
2.504545000 1.445998554 6.000000000
0.000000000 0.000000000 9.200000000
0.756950634 0.585882300 9.200000000
-0.756950634 0.585882300 9.200000000
